C    Li                                 
   1.0000000000000000     
     7.4018740654000004    0.0000000000000000    0.0000000000000000
    -3.7009378863000002    6.4102104834000002    0.0000000000000000
     0.0000000000000000    0.0000000000000000   27.8030738831000015
   C    Li
    36     1
Direct
  0.0000398059438875 -0.0004330512562419  0.4302668843767372
  0.9996231443260264  0.3327674271855035  0.4300324016572377
 -0.0002373414587585  0.6661898167667507  0.4301965269764044
  0.3328650949916345 -0.0004356111533021  0.4302653124506621
  0.3324879068678837  0.3316421533546527  0.4292648239464885
  0.3324612800205711  0.6660518339109431  0.4290689837853953
  0.6666627861258276 -0.0000128324820092  0.4299419460132597
  0.6664794480561380  0.3327688288712612  0.4300313412073647
  0.6669271337048733  0.6660561844735391  0.4290694482539622
  0.0003769267984232  0.0005660344414947  0.5699675188556080
  0.9999601996331050  0.3337664818424531  0.5697330408600307
  1.0002374327088430  0.6671436701689608  0.5698034351094698
  0.3335206367534062  0.0005646325802992  0.5699685788659834
  0.3333372737657533  0.3333462595175005  0.5700579781999133
  0.3330730194628072  0.6672774474480546  0.5709305156887641
  0.6675121913428227  0.0016913484134450  0.5707350327677366
  0.6671350242228751  0.3337690421346269  0.5697346127034867
  0.6675388939851880  0.6672817985191527  0.5709309808734566
  0.1105754876209906  0.2214417931958390  0.4299329772962344
  0.1101219982863024  0.5546781666622296  0.4298973567249229
  0.1108716387512228  0.8884112497415249  0.4302450956187109
  0.4441952049228792  0.2214411261260993  0.4299314836309689
  0.4436848248815082  0.5540411100776024  0.4280307230398914
  0.4441786452788378  0.8887824330593801  0.4298183756025761
  0.7776643828911101  0.2219996155091671  0.4302738176296979
  0.7778850014915120  0.5546812200403021  0.4298972411363671
  0.7779389041815082  0.8887858011018183  0.4298197453829300
  0.2223356670432319  0.1113337914729349  0.5697260987151026
  0.2220611790365400  0.4445477480019850  0.5701801814081932
  0.2221150638804118  0.7786522975039162  0.5701027009468771
  0.5558049045047652  0.1118923305383446  0.5700684192705961
  0.5558215146210541  0.4445511166229921  0.5701815512567984
  0.5563153370137881  0.7792925200904142  0.5719690959195807
  0.8894245515981025  0.1118916626011423  0.5700669259934192
  0.8891284344526047  0.4449222039826471  0.5697548514882882
  0.8898781475296367  0.7786553507586248  0.5701025859295574
  0.4999930212521458  0.6666526664695959  0.5000008743130405

             NaN             NaN             NaN
             NaN             NaN             NaN
             NaN             NaN             NaN
             NaN             NaN             NaN
             NaN             NaN             NaN
             NaN             NaN             NaN
             NaN             NaN             NaN
             NaN             NaN             NaN
             NaN             NaN             NaN
             NaN             NaN             NaN
             NaN             NaN             NaN
             NaN             NaN             NaN
             NaN             NaN             NaN
             NaN             NaN             NaN
             NaN             NaN             NaN
             NaN             NaN             NaN
             NaN             NaN             NaN
             NaN             NaN             NaN
             NaN             NaN             NaN
             NaN             NaN             NaN
             NaN             NaN             NaN
             NaN             NaN             NaN
             NaN             NaN             NaN
             NaN             NaN             NaN
             NaN             NaN             NaN
             NaN             NaN             NaN
             NaN             NaN             NaN
             NaN             NaN             NaN
             NaN             NaN             NaN
             NaN             NaN             NaN
             NaN             NaN             NaN
             NaN             NaN             NaN
             NaN             NaN             NaN
             NaN             NaN             NaN
             NaN             NaN             NaN
             NaN             NaN             NaN
             NaN             NaN             NaN
