C    Li
   1.0000000000000000     
   7.4018740654000004   0.0000000000000000   0.0000000000000000
  -3.7009378863000002   6.4102104834000002   0.0000000000000000
   0.0000000000000000   0.0000000000000000  27.8030738831000015
C    Li
36  1  
Direct
  0.0004066382946348  0.0001591429547574  0.4301541384003680  
  0.9998822293905720  0.3332970076595030  0.4300454963492730  
  0.0000144175993242  0.6666955218062040  0.4301633318657000  
  0.3330858479729100  0.0001591429547574  0.4301541384003680  
  0.3329507044258760  0.3325680655299550  0.4297382980124740  
  0.3327745373444270  0.6666783511959200  0.4294841981888310  
  0.6669004356129520  0.0004674982449515  0.4297822030603130  
  0.6667481214556260  0.3332970076595030  0.4300454963492730  
  0.6672371571822850  0.6666783511959200  0.4294841981888310  
  0.0001177765838278  0.0000363372310872  0.5699544743749880  
  0.9995933672120570  0.3331742027707700  0.5698458328087310  
  0.9999855833778070  0.6666378533631910  0.5698366391409450  
  0.3332519039600540  0.0000363372310872  0.5699544743749880  
  0.3330995941032740  0.3328658448847650  0.5702177679388500  
  0.3327628715487380  0.6666550174992100  0.5705157730626600  
  0.6670493244661631  0.0007652759513803  0.5702616731665910  
  0.6669141787454080  0.3331742027707700  0.5698458328087310  
  0.6672254892812650  0.6666550174992100  0.5705157730626600  
  0.1108955977733790  0.2220488167904340  0.4300172302776060  
  0.1105039922894660  0.5552937795299540  0.4300038664439540  
  0.1111270255911880  0.8889207227426890  0.4301765566974180  
  0.4444865921030900  0.2220488167904340  0.4300172302776060  
  0.4442623337682010  0.5551912945764600  0.4289687864523590  
  0.4443362456555350  0.8893024595851100  0.4297543149688750  
  0.7779656519706820  0.2225979307742700  0.4301364161519670  
  0.7781231603355180  0.5552937795299540  0.4300038664439540  
  0.7782995273190280  0.8893024595851100  0.4297543149688750  
  0.2220343779193430  0.1107353827106370  0.5698635545666020  
  0.2217004807043420  0.4440309403992940  0.5702456564279930  
  0.2218768319151960  0.7780395519623230  0.5699961044123190  
  0.5555134600964780  0.1112845096792650  0.5699827406903210  
  0.5556638029747279  0.4440309403992940  0.5702456564279930  
  0.5557377030954600  0.7781420330448510  0.5710311852359600  
  0.8891044226568070  0.1112845096792650  0.5699827406903210  
  0.8888730063892250  0.4444126994100230  0.5698234145081860  
  0.8894960334785940  0.7780395519623230  0.5699961044123190  
  0.5000000148989940  0.6666666567449940  0.4999999842864750  
