C    H    Li                            
   1.0000000000000000     
    37.0938796996999969    0.0000000000000000    0.0000000000000000
     0.0000000000000000    7.3546423911999996    0.0000000000000000
     0.0000000000000000    0.0000000000000000   27.8030738831000015
   C    H    Li
   108    12     1
Direct
  0.4995729078100866  0.8333638631387481  0.4366371976276729
  0.7305744120121273  0.8333117612473580  0.5632472354273124
  0.3841586912278853  0.8333855155108111  0.4362386944979026
  0.6150221046622298  0.8333594873387926  0.4369463325359526
  0.4418644887283616  0.6667065707621216  0.4364450084657739
  0.6727997990469488  0.6666888375763683  0.4367170541664107
  0.3264681911828239  0.6667212869225579  0.4362045106190156
  0.5572901021088356  0.6666929961967462  0.4368345064312188
  0.4995728752920806  0.1666973977667030  0.4366370784390350
  0.7305744279512482  0.1666431720846784  0.5632471713419255
  0.3841581526959826  0.1667187758533170  0.4362374601176397
  0.6150221180535528  0.1666931579313581  0.4369463061964805
  0.4418645792667313  0.0000388826423539  0.4364426541068763
  0.6727996662689927  0.0000221174856081  0.4367160008567280
  0.3264683555824614  1.0000470386551270  0.4362039334601424
  0.5572901398312188  0.0000263335000432  0.4368321837210310
  0.4995726324689450  0.5000305985158058  0.4366409527276162
  0.7305748233115119  0.4999775393537038  0.5632473556437794
  0.3841581045885915  0.5000526206597944  0.4362389748220772
  0.6150221381594800  0.5000262961570846  0.4369478222140056
  0.4418643091412460  0.3333729684204916  0.4364451101080317
  0.6727998269763563  0.3333558370808951  0.4367170432097231
  0.3264689935078858  0.3333846498269152  0.4362089000400863
  0.5572900907809576  0.3333598451101072  0.4368344783401772
  0.2691336645407432  0.8333839686239209  0.4366264459010653
  0.5001412011631662  0.8332829236171662  0.5632050871837682
  0.3846852256192559  0.8332593374645491  0.5629464738670730
  0.6155560076788577  0.8333048159567005  0.5636702241503433
  0.4424203046763875  0.6666074648349458  0.5629768376733055
  0.6732469772891877  0.6666399012977238  0.5637301516364885
  0.3269038217298292  0.6666233501589135  0.5632563896567198
  0.5578523521987825  0.6666306904610915  0.5634557238850446
  0.2691510940453989  0.1667066379848635  0.4365893102572104
  0.5001410373825552  0.1666160781761319  0.5632048936708235
  0.3846826360981109  0.1665894340452427  0.5629470434664110
  0.6155559578695965  0.1666383512723406  0.5636702105307781
  0.4424202964256255  0.9999421767262296  0.5629795363102461
  0.6732466137745720  0.9999734885065564  0.5637306556492822
  0.3269036703119646  0.9999167075686130  0.5632586757212488
  0.5578523618266407  0.9999643574292751  0.5634574385361011
  0.2691507630671846  0.5000624427273508  0.4365888860360483
  0.5001410289092527  0.4999491877842196  0.5632016433160627
  0.3846826663693627  0.4999286261318484  0.5629453077806545
  0.6155560564807135  0.4999718683687336  0.5636691681642619
  0.4424197977770388  0.3332745789784271  0.5629767819557295
  0.6732470434848171  0.3333067361695443  0.5637301069500890
  0.3269008016069101  0.3332697366799605  0.5632732179218057
  0.5578524827541984  0.3332975733506046  0.5634556699097358
  0.4610984276527842  0.8333698239004627  0.4365035221061011
  0.6919354275537518  0.8333551976350441  0.4365616973433238
  0.3455969429011130  0.8333847658955064  0.4361713182615582
  0.5765275532049222  0.8333593260607469  0.4368896126799121
  0.4033684920455578  0.6667187115247856  0.4362856939088826
  0.6342373312816342  0.6666919859855989  0.4369019434604834
  0.2875836115696195  0.6667456642062239  0.4364049142481467
  0.5188145364867472  0.6666959280294056  0.4366896933170772
  0.4610983859744560  0.1667032944646998  0.4365033968635762
  0.6919353365954908  0.1666884057602672  0.4365616666297018
  0.3455962122891209  0.1667156401734433  0.4361698396378452
  0.5765275404030216  0.1666928872547541  0.4368895810540167
  0.4033685199048952  0.0000516913099414  0.4362838828889408
  0.6342372385894508  0.0000252821916683  0.4369006047244307
  0.2875838654206988  1.0000211666984458  0.4364048253235712
  0.5188146033325187  0.0000294766637304  0.4366865914898450
  0.4610982611388887  0.5000360227908263  0.4365062062796367
  0.6919356076144102  0.5000220224760427  0.4365626791786087
  0.3455961570321859  0.5000546877894327  0.4361706596571720
  0.5765275586718216  0.5000260875805567  0.4368915467378832
  0.4033681162224531  0.3333851723299613  0.4362857143187349
  0.6342373465625464  0.3333588328730637  0.4369019188097935
  0.2875820068994163  0.3333841056929978  0.4363988361489373
  0.5188145176074203  0.3333629362902324  0.4366896707631941
  0.4809003642140941  0.9999456970714375  0.5631317102546256
  0.7121224589865820  0.9999772599685169  0.5635029078429634
  0.3654724484796326  0.9999213489375000  0.5630119827473847
  0.5963437163095705  0.9999705585027333  0.5636152584902272
  0.4231856144434100  0.8332726883003380  0.5629478869789444
  0.6541174336380874  0.8333062068178638  0.5637612671518096
  0.3077705837887384  0.8332739298669684  0.5634992128340259
  0.5386157652438274  0.8332945569710187  0.5633892692280221
  0.4808995939897318  0.3332782914439734  0.5631290891418275
  0.7121229546330916  0.3333103799547497  0.5635026801181536
  0.3654686991389394  0.3332600781651825  0.5630181093511203
  0.5963435800913132  0.3333038647935209  0.5636139309715883
  0.4231837421286635  0.1666052717265781  0.5629461890713832
  0.6541174167370403  0.1666400450910994  0.5637612231092791
  0.3077760434608222  0.1665799112543322  0.5634919360705604
  0.5386156686830528  0.1666278482751975  0.5633890707193941
  0.4809003668257066  0.6666107269116135  0.5631289548895320
  0.7121230173355644  0.6666436455034157  0.5635027309147556
  0.3654725147872676  0.6665981459905673  0.5630100324372044
  0.5963437060462682  0.6666366527899302  0.5636139109785070
  0.4231837687164025  0.4999404636871922  0.5629440285710049
  0.6541175816100132  0.4999733774544290  0.5637606101154762
  0.3077759008498848  0.4999687194394719  0.5634902853493047
  0.5386156458743419  0.4999613902333676  0.5633870321675686
  0.2688835437844735  0.8332843786804066  0.5640733632631004
  0.2688914490564341  0.5000683844627111  0.5641774162366939
  0.2688917952700031  0.1665007488324382  0.5641785351046309
  0.7308137273024327  0.8333546461692513  0.4362641866771561
  0.7308139577007627  0.5000214202938678  0.4362649651792296
  0.7308135436401721  0.1666877593902932  0.4362640995825576
  0.2504367955437735  0.6666522167201995  0.5644381367707954
  0.2505089034006227  0.3332855584867124  0.5647669544002050
  0.2504371507040588  0.9999202633915597  0.5644390714314185
  0.7492763212646133  0.0000213615139787  0.4361325208928932
  0.7492763247712279  0.3333538653823647  0.4361328175105896
  0.7492766054506140  0.6666884453027010  0.4361329676027099
  0.2396622866112280  0.8333891601092231  0.4371890881334735
  0.2396555738786411  0.5001079387983768  0.4370307309894632
  0.2396558408800591  0.1666580772694567  0.4370299049403554
  0.7600386421643822  0.8333166632785107  0.5626434983851719
  0.7600391153598958  0.4999772467857498  0.5626441801160755
  0.7600386686248287  0.1666381052479047  0.5626433967269014
  0.2209415156086097  0.6667070096470455  0.5649880581164688
  0.2209858432437824  0.3332828346637257  0.5662305526019178
  0.2209417652545705  0.9998711980762376  0.5649884000915670
  0.7787523707073903  0.0000232957069601  0.4359274279300794
  0.7787522336884495  0.3333515672427307  0.4359261229185133
  0.7787526745121457  0.6666930952681932  0.4359264634102263
  0.1564045750008237  0.3329169022741513  0.4990784882433427

             NaN             NaN             NaN
             NaN             NaN             NaN
             NaN             NaN             NaN
             NaN             NaN             NaN
             NaN             NaN             NaN
             NaN             NaN             NaN
             NaN             NaN             NaN
             NaN             NaN             NaN
             NaN             NaN             NaN
             NaN             NaN             NaN
             NaN             NaN             NaN
             NaN             NaN             NaN
             NaN             NaN             NaN
             NaN             NaN             NaN
             NaN             NaN             NaN
             NaN             NaN             NaN
             NaN             NaN             NaN
             NaN             NaN             NaN
             NaN             NaN             NaN
             NaN             NaN             NaN
             NaN             NaN             NaN
             NaN             NaN             NaN
             NaN             NaN             NaN
             NaN             NaN             NaN
             NaN             NaN             NaN
             NaN             NaN             NaN
             NaN             NaN             NaN
             NaN             NaN             NaN
             NaN             NaN             NaN
             NaN             NaN             NaN
             NaN             NaN             NaN
             NaN             NaN             NaN
             NaN             NaN             NaN
             NaN             NaN             NaN
             NaN             NaN             NaN
             NaN             NaN             NaN
             NaN             NaN             NaN
             NaN             NaN             NaN
             NaN             NaN             NaN
             NaN             NaN             NaN
             NaN             NaN             NaN
             NaN             NaN             NaN
             NaN             NaN             NaN
             NaN             NaN             NaN
             NaN             NaN             NaN
             NaN             NaN             NaN
             NaN             NaN             NaN
             NaN             NaN             NaN
             NaN             NaN             NaN
             NaN             NaN             NaN
             NaN             NaN             NaN
             NaN             NaN             NaN
             NaN             NaN             NaN
             NaN             NaN             NaN
             NaN             NaN             NaN
             NaN             NaN             NaN
             NaN             NaN             NaN
             NaN             NaN             NaN
             NaN             NaN             NaN
             NaN             NaN             NaN
             NaN             NaN             NaN
             NaN             NaN             NaN
             NaN             NaN             NaN
             NaN             NaN             NaN
             NaN             NaN             NaN
             NaN             NaN             NaN
             NaN             NaN             NaN
             NaN             NaN             NaN
             NaN             NaN             NaN
             NaN             NaN             NaN
             NaN             NaN             NaN
             NaN             NaN             NaN
             NaN             NaN             NaN
             NaN             NaN             NaN
             NaN             NaN             NaN
             NaN             NaN             NaN
             NaN             NaN             NaN
             NaN             NaN             NaN
             NaN             NaN             NaN
             NaN             NaN             NaN
             NaN             NaN             NaN
             NaN             NaN             NaN
             NaN             NaN             NaN
             NaN             NaN             NaN
             NaN             NaN             NaN
             NaN             NaN             NaN
             NaN             NaN             NaN
             NaN             NaN             NaN
             NaN             NaN             NaN
             NaN             NaN             NaN
             NaN             NaN             NaN
             NaN             NaN             NaN
             NaN             NaN             NaN
             NaN             NaN             NaN
             NaN             NaN             NaN
             NaN             NaN             NaN
             NaN             NaN             NaN
             NaN             NaN             NaN
             NaN             NaN             NaN
             NaN             NaN             NaN
             NaN             NaN             NaN
             NaN             NaN             NaN
             NaN             NaN             NaN
             NaN             NaN             NaN
             NaN             NaN             NaN
             NaN             NaN             NaN
             NaN             NaN             NaN
             NaN             NaN             NaN
             NaN             NaN             NaN
             NaN             NaN             NaN
             NaN             NaN             NaN
             NaN             NaN             NaN
             NaN             NaN             NaN
             NaN             NaN             NaN
             NaN             NaN             NaN
             NaN             NaN             NaN
             NaN             NaN             NaN
             NaN             NaN             NaN
             NaN             NaN             NaN
             NaN             NaN             NaN
             NaN             NaN             NaN
