C    Li                                 
   1.0000000000000000     
     7.4018740654000004    0.0000000000000000    0.0000000000000000
    -3.7009378863000002    6.4102104834000002    0.0000000000000000
     0.0000000000000000    0.0000000000000000   27.8030738831000015
   C    Li
    36     1
Direct
  0.0000118370743736 -0.0002714695681043  0.4301850807105357
  0.9997093135672347  0.3329811055100012  0.4299527004660194
 -0.0000976245840490  0.6664672570418442  0.4301820034130528
  0.3330532439466074 -0.0002738140709973  0.4301835634984101
  0.3326796583297744  0.3320272514483343  0.4291776454854562
  0.3327459687178979  0.6665816843151264  0.4291975254374715
  0.6667182246254026  0.0000981047812244  0.4299073000829209
  0.6666077582605464  0.3329828767280048  0.4299517211748903
  0.6671734957293213  0.6665860357352130  0.4291980545084901
  0.0004782031851836  0.0007450917992915  0.5698421579814956
  0.9998610263972836  0.3338192116494692  0.5696464873675080
  0.0003382203683726  0.6673426946386156  0.5697876914753990
  0.3335986959557967  0.0007437739981143  0.5698430356484796
  0.3334346224925764  0.3335417352108297  0.5698819553351796
  0.3332732939729526  0.6677354316199892  0.5707703029281072
  0.6675719147586373  0.0018118914345119  0.5703586485911855
  0.6672871883362966  0.3338225085893877  0.5696476800692867
  0.6677975886463446  0.6677401710931457  0.5707705780010082
  0.1106075238451172  0.2216549218927694  0.4298373062494191
  0.1103858906517287  0.5550336530143646  0.4298776656876591
  0.1109822948672005  0.8886316394127022  0.4301980439851741
  0.4443766185365972  0.2216554782670660  0.4298358868798942
  0.4440370558168771  0.5547436551837097  0.4280479266236396
  0.4444233208674058  0.8890929200194915  0.4298303410876434
  0.7777133865744746  0.2220999964197963  0.4301734406906193
  0.7779768817822894  0.5550357349596741  0.4298776137356788
  0.7780030500298070  0.8890947065300956  0.4298316972526603
  0.2223619592928783  0.1113884946124025  0.5695945032338524
  0.2220981980618279  0.4448705573493966  0.5700603963084295
  0.2221665261302535  0.7788978673871562  0.5700109407872989
  0.5559240663763423  0.1119934305523682  0.5698921258519408
  0.5561076795645195  0.4448745595319744  0.5700614081446135
  0.5564625992675907  0.7795853205669704  0.5713639855703181
  0.8894051738397304  0.1119919566917882  0.5698909584681933
  0.8891869303560889  0.4450402068972472  0.5697082575823175
  0.8900718541138003  0.7789007009024770  0.5700107885580546
  0.4724907819533314  0.6116476366245812  0.5034120450234153

             NaN             NaN             NaN
             NaN             NaN             NaN
             NaN             NaN             NaN
             NaN             NaN             NaN
             NaN             NaN             NaN
             NaN             NaN             NaN
             NaN             NaN             NaN
             NaN             NaN             NaN
             NaN             NaN             NaN
             NaN             NaN             NaN
             NaN             NaN             NaN
             NaN             NaN             NaN
             NaN             NaN             NaN
             NaN             NaN             NaN
             NaN             NaN             NaN
             NaN             NaN             NaN
             NaN             NaN             NaN
             NaN             NaN             NaN
             NaN             NaN             NaN
             NaN             NaN             NaN
             NaN             NaN             NaN
             NaN             NaN             NaN
             NaN             NaN             NaN
             NaN             NaN             NaN
             NaN             NaN             NaN
             NaN             NaN             NaN
             NaN             NaN             NaN
             NaN             NaN             NaN
             NaN             NaN             NaN
             NaN             NaN             NaN
             NaN             NaN             NaN
             NaN             NaN             NaN
             NaN             NaN             NaN
             NaN             NaN             NaN
             NaN             NaN             NaN
             NaN             NaN             NaN
             NaN             NaN             NaN
