C    Li
   1.0000000000000000     
   7.4018740654000004   0.0000000000000000   0.0000000000000000
  -3.7009378863000002   6.4102104834000002   0.0000000000000000
   0.0000000000000000   0.0000000000000000  27.8030738831000015
C    Li
36  1  
Direct
  0.0002327699423574  0.0000501206823387  0.4301364043322450  
  0.9998383772761980  0.3332638067304070  0.4299642477902810  
  0.0000366595781145  0.6667400057637920  0.4301410010649110  
  0.3331506940527690  0.0000501206823387  0.4301364043322450  
  0.3329479787600110  0.3325626141982240  0.4295126437504070  
  0.3328598952304920  0.6668665639500940  0.4293855938385820  
  0.6668349297473600  0.0003364865137740  0.4298326011457970  
  0.6667587726409040  0.3332638067304070  0.4299642477902810  
  0.6673400120504031  0.6668665639500940  0.4293855938385820  
  0.0000739223324615  0.0000031345749960  0.5698732259978880  
  0.9994195014754440  0.3330651819302940  0.5698280988825460  
  0.0000078257128635  0.6666823380332970  0.5698143083808630  
  0.3332625555553220  0.0000031345749960  0.5698732259978880  
  0.3330340907979520  0.3327348382741140  0.5702681663436810  
  0.3328657295318890  0.6668432299024970  0.5704171689055850  
  0.6670465965297150  0.0007598200784855  0.5700360190614761  
  0.6669790236415450  0.3330651819302940  0.5698280988825460  
  0.6673108437014010  0.6668432299024970  0.5704171689055850  
  0.1107719606352830  0.2219780044552520  0.4299200976321130  
  0.1105761579145790  0.5553507689489410  0.4299134157152840  
  0.1111190836976590  0.8889048389556250  0.4301590872618280  
  0.4445394169060040  0.2219780044552520  0.4299200976321130  
  0.4443533907319120  0.5553734085038901  0.4286103472029690  
  0.4444642436350960  0.8893270978659590  0.4297886399777440  
  0.7778717215358451  0.2224100699045980  0.4301122402772960  
  0.7781079841293920  0.5553507689489410  0.4299134157152840  
  0.7781961676203150  0.8893270978659590  0.4297886399777440  
  0.2219404474676380  0.1105475218072200  0.5698393788651260  
  0.2215971177680910  0.4440555879597030  0.5702799818114950  
  0.2218616595203220  0.7780965324139120  0.5699056537879840  
  0.5555662991447220  0.1112136961464930  0.5698856082049910  
  0.5557918134713870  0.4440555879597030  0.5702799818114950  
  0.5558287635920039  0.7783241540379390  0.5706727462154790  
  0.8889807700757900  0.1112136961464930  0.5698856082049910  
  0.8888650618651610  0.4443968103618940  0.5698059451139200  
  0.8895681863250570  0.7780965324139120  0.5699056537879840  
  0.4722222312973090  0.6111110895881570  0.5025987054584530  
