C    H    Li                            
   1.0000000000000000     
    37.2234382628999967    0.0000000000000000    0.0000000000000000
     0.0000000000000000    8.5469398498999993    0.0000000000000000
     0.0000000000000000    0.0000000000000000   27.8030738831000015
   C    H    Li
   104    16     1
Direct
  0.4662823034581231  0.0052112058194709  0.4365798583516036
  0.4662939388555846  0.5051551969743215  0.4367128005497243
  0.4331420136249541  0.2552332240002691  0.4368555145737131
  0.4331077397946141  0.7551273908918319  0.4365178035785031
  0.3335184145954975  0.0044231901670571  0.4356736211250748
  0.3335706873311243  0.5055910677423177  0.4333632620360217
  0.3012613526950491  0.2575098130832236  0.4274799511862851
  0.3011045806428602  0.7585716432925298  0.4372869042926612
  0.4000113738869989  0.0053205428492291  0.4364848081910496
  0.4000215024447578  0.5054144248521891  0.4365928729841674
  0.3668022261299124  0.2551008902732341  0.4354529310097582
  0.3667485350133393  0.7552273855624994  0.4362193370152813
  0.4662467412643832  0.9945096837516060  0.5632374413072512
  0.4662433203567382  0.4944939097756777  0.5633878950844502
  0.4330956464806499  0.2443583003932749  0.5631808496879289
  0.4330425209774232  0.7444284568787071  0.5632301477287560
  0.3334338967179027  0.9938967463589002  0.5648490246553534
  0.3334728752034781  0.4943284771434344  0.5656370935922884
  0.3011609652965543  0.2397447588630700  0.5720786725464122
  0.3009963776624745  0.7409268881094038  0.5627762280490957
  0.3999524774483779  0.9941245384365878  0.5630716999428861
  0.3999603729770044  0.4941632704619285  0.5636061362075158
  0.3668286302872866  0.2438343545118338  0.5648421258192383
  0.3666708173640721  0.7440276356746163  0.5632091028948619
  0.4662865633036565  0.1719744594228806  0.4367014981414309
  0.4662752497347880  0.6719172760624955  0.4365607576513922
  0.4331380486281822  0.4219037953764089  0.4368499614881421
  0.4330989741281153  0.9220065078087621  0.4365329424146965
  0.3335559852209561  0.1717983265777962  0.4335727883882162
  0.3335371333759276  0.6729181108951909  0.4355157261964050
  0.3012325881519498  0.4196666487165763  0.4271837489772780
  0.3010756049593885  0.9187975075466610  0.4373016784855230
  0.4000104180925638  0.1718592790714246  0.4366027961123738
  0.4000087309296225  0.6719172283342119  0.4363977325054632
  0.3667920521192397  0.4221580371230993  0.4353914534241565
  0.3667287929765234  0.9220391729531318  0.4362743467395652
  0.3011444784891759  0.0788919881210865  0.5695421639535154
  0.3009115968713154  0.5803730259989816  0.5644978652321899
  0.4662500057067949  0.3277984086313331  0.5633058096252234
  0.4662263958569317  0.8278140868515568  0.5633298036267731
  0.3667044574692837  0.0771172997493370  0.5640982243376276
  0.3667253081774625  0.5773708800529411  0.5637825174876872
  0.3336401259809985  0.3268281928288106  0.5678729741121092
  0.3333988212154295  0.8265768702655650  0.5633260084541654
  0.4330630906153944  0.0776429629656907  0.5630953492023757
  0.4330551038239371  0.5776458105169922  0.5633522628929614
  0.3999883237772965  0.3275008622510237  0.5636340009607956
  0.3999273828906814  0.8274629644727510  0.5630892814161925
  0.5325656820937564  0.9946320596337866  0.5636643894382192
  0.5325631203652971  0.4946402929980956  0.5636927299484837
  0.5656988303450884  0.7447605202818562  0.5637984486505748
  0.5657054477898984  0.2447596664160994  0.5637881426574302
  0.6652117191051514  0.9951760038830487  0.5637737379742516
  0.6652106439054396  0.4951797342312181  0.5637700759258513
  0.6976125138419667  0.7413625152737582  0.5634636107664633
  0.6976126883595564  0.2413614709071190  0.5634727456257930
  0.4993771257117577  0.7445568028757165  0.5635103166128050
  0.4993988695996516  0.2445414523582184  0.5634369019175914
  0.5988142320943981  0.9943989173140637  0.5638687972922507
  0.5988125739596083  0.4944077334723377  0.5638722188172381
  0.6321005697176141  0.7447608840363990  0.5639055812528598
  0.6321018449074305  0.2447606239622598  0.5639071293705316
  0.5326023080857094  0.0052639002574596  0.4362997291238150
  0.5326121462402480  0.5052517695165167  0.4363321090281972
  0.5657316707237621  0.7551740679931058  0.4362006985264874
  0.5657383190201014  0.2551751587241777  0.4362153980013038
  0.6652341876113246  0.0048694629484005  0.4362320243021515
  0.6652361032045753  0.5048720977777782  0.4362316700725328
  0.6976364885037004  0.7587150342898338  0.4365388338238085
  0.6976375724992496  0.2587128880503488  0.4365364111703674
  0.4994210231970612  0.7552607849591860  0.4364485338780302
  0.4994399745803449  0.2553072574469681  0.4365686698391192
  0.5988413827944652  0.0056043096744284  0.4361288732304139
  0.5988459666236188  0.5056081309978800  0.4361353378444911
  0.6321299957073141  0.7552846201926612  0.4360982843123084
  0.6321317260419178  0.2552796930907055  0.4360981955833659
  0.5325573899746582  0.8279282963096836  0.5636830446744507
  0.5325681150831851  0.3279343480270694  0.5636722665848510
  0.5657003553148681  0.5778310997577660  0.5638188275863428
  0.5657003212326768  0.0778249285926607  0.5638013823420175
  0.6651990316003725  0.8273717747720988  0.5637902238747909
  0.6651992515579320  0.3273712799163222  0.5637924084876181
  0.6976361583106387  0.5811602067564346  0.5635228147092610
  0.6976370904659177  0.0811579444112622  0.5635334805506578
  0.4993855388216124  0.5779075107396634  0.5635479843736202
  0.4993901085677702  0.0779202447996797  0.5634524259505022
  0.5988116678910922  0.8281736673218810  0.5638971499655426
  0.5988144257228256  0.3281735120087092  0.5638980143589060
  0.6321059540284514  0.5778527275880048  0.5638965439793647
  0.6321063456925943  0.0778481116384865  0.5638979081906338
  0.6976578827340187  0.9189255770687633  0.4364752786762476
  0.6976590301513740  0.4189292926741379  0.4364721133600507
  0.4994205005653575  0.9219053166061378  0.4364192031414417
  0.4994410463181506  0.4218559599122137  0.4365440641707138
  0.5326013330688826  0.6719578880310018  0.4363069742562602
  0.5326118770131146  0.1719645160333876  0.4363299557481599
  0.6321357628502287  0.9221867086853036  0.4361072113568429
  0.6321372201114451  0.4221902174152359  0.4361089483241903
  0.6652253617976330  0.6727089609250863  0.4362145339858604
  0.6652272639368398  0.1727068263586557  0.4362137361306623
  0.5657314475758012  0.9221516039391303  0.4361781395437273
  0.5657374890505874  0.4221451137783084  0.4361998205803689
  0.5988415168765762  0.6718286272171117  0.4361043648658189
  0.5988465659389218  0.1718235239959704  0.4361037537723458
  0.7233813213332381  0.9794505845230888  0.4368299101513171
  0.7233827694388131  0.4794515788161936  0.4368249156162490
  0.7233242583279664  0.8019841982654993  0.5630475596727825
  0.7233244784561116  0.3019838141971263  0.5630610386585360
  0.7233499757787000  0.6981150830352632  0.4369620760938255
  0.7233514536724865  0.1981161271310598  0.4369587051115498
  0.7233650258781948  0.0206625899089492  0.5631914119587217
  0.7233637681658958  0.5206623269222415  0.5631752325501513
  0.2755955297519946  0.0179587757441706  0.5729700323115200
  0.2749022487800893  0.5213770374710950  0.5667927207868448
  0.2760886258231166  0.1960061296544397  0.4208348220474623
  0.2754185574145299  0.6978085798015263  0.4392285455006860
  0.2758139021560411  0.2993308826442450  0.5798442877733991
  0.2752937818945946  0.8015243464597150  0.5616064936379936
  0.2753770782368289  0.9794341138314220  0.4392176514620227
  0.2760568936833268  0.4809554206835169  0.4203155730746815
  0.2977584253859855  0.3540664608709103  0.5030223453332585

             NaN             NaN             NaN
             NaN             NaN             NaN
             NaN             NaN             NaN
             NaN             NaN             NaN
             NaN             NaN             NaN
             NaN             NaN             NaN
             NaN             NaN             NaN
             NaN             NaN             NaN
             NaN             NaN             NaN
             NaN             NaN             NaN
             NaN             NaN             NaN
             NaN             NaN             NaN
             NaN             NaN             NaN
             NaN             NaN             NaN
             NaN             NaN             NaN
             NaN             NaN             NaN
             NaN             NaN             NaN
             NaN             NaN             NaN
             NaN             NaN             NaN
             NaN             NaN             NaN
             NaN             NaN             NaN
             NaN             NaN             NaN
             NaN             NaN             NaN
             NaN             NaN             NaN
             NaN             NaN             NaN
             NaN             NaN             NaN
             NaN             NaN             NaN
             NaN             NaN             NaN
             NaN             NaN             NaN
             NaN             NaN             NaN
             NaN             NaN             NaN
             NaN             NaN             NaN
             NaN             NaN             NaN
             NaN             NaN             NaN
             NaN             NaN             NaN
             NaN             NaN             NaN
             NaN             NaN             NaN
             NaN             NaN             NaN
             NaN             NaN             NaN
             NaN             NaN             NaN
             NaN             NaN             NaN
             NaN             NaN             NaN
             NaN             NaN             NaN
             NaN             NaN             NaN
             NaN             NaN             NaN
             NaN             NaN             NaN
             NaN             NaN             NaN
             NaN             NaN             NaN
             NaN             NaN             NaN
             NaN             NaN             NaN
             NaN             NaN             NaN
             NaN             NaN             NaN
             NaN             NaN             NaN
             NaN             NaN             NaN
             NaN             NaN             NaN
             NaN             NaN             NaN
             NaN             NaN             NaN
             NaN             NaN             NaN
             NaN             NaN             NaN
             NaN             NaN             NaN
             NaN             NaN             NaN
             NaN             NaN             NaN
             NaN             NaN             NaN
             NaN             NaN             NaN
             NaN             NaN             NaN
             NaN             NaN             NaN
             NaN             NaN             NaN
             NaN             NaN             NaN
             NaN             NaN             NaN
             NaN             NaN             NaN
             NaN             NaN             NaN
             NaN             NaN             NaN
             NaN             NaN             NaN
             NaN             NaN             NaN
             NaN             NaN             NaN
             NaN             NaN             NaN
             NaN             NaN             NaN
             NaN             NaN             NaN
             NaN             NaN             NaN
             NaN             NaN             NaN
             NaN             NaN             NaN
             NaN             NaN             NaN
             NaN             NaN             NaN
             NaN             NaN             NaN
             NaN             NaN             NaN
             NaN             NaN             NaN
             NaN             NaN             NaN
             NaN             NaN             NaN
             NaN             NaN             NaN
             NaN             NaN             NaN
             NaN             NaN             NaN
             NaN             NaN             NaN
             NaN             NaN             NaN
             NaN             NaN             NaN
             NaN             NaN             NaN
             NaN             NaN             NaN
             NaN             NaN             NaN
             NaN             NaN             NaN
             NaN             NaN             NaN
             NaN             NaN             NaN
             NaN             NaN             NaN
             NaN             NaN             NaN
             NaN             NaN             NaN
             NaN             NaN             NaN
             NaN             NaN             NaN
             NaN             NaN             NaN
             NaN             NaN             NaN
             NaN             NaN             NaN
             NaN             NaN             NaN
             NaN             NaN             NaN
             NaN             NaN             NaN
             NaN             NaN             NaN
             NaN             NaN             NaN
             NaN             NaN             NaN
             NaN             NaN             NaN
             NaN             NaN             NaN
             NaN             NaN             NaN
             NaN             NaN             NaN
             NaN             NaN             NaN
             NaN             NaN             NaN
             NaN             NaN             NaN
