C    H    Li                            
   1.0000000000000000     
    37.0938796996999969    0.0000000000000000    0.0000000000000000
     0.0000000000000000    7.3546423911999996    0.0000000000000000
     0.0000000000000000    0.0000000000000000   27.8030738831000015
   C    H    Li
   108    12     1
Direct
  0.4998062537120239  0.8335320867218892  0.4369206800887371
  0.7300268175570891  0.8331822444614944  0.5630119614889729
  0.3844343468809348  0.8334821028899556  0.4347969217529978
  0.6152284483605349  0.8335639005368876  0.4371847675436872
  0.4421160482580080  0.6668527312856533  0.4361824171192873
  0.6729986992629675  0.6668656758462613  0.4368227064435154
  0.3267509533061780  0.6670808126261953  0.4324575702361830
  0.5575081141803182  0.6668758403178349  0.4372064352156460
  0.4998030754327126  0.1668658229030388  0.4368820435842585
  0.7300266813274650  0.1665145049205345  0.5630113267595525
  0.3844341377770067  0.1667402367101874  0.4344534270673611
  0.6152288131876442  0.1668984463869020  0.4371819747253620
  0.4421159170532322  0.0001472718811237  0.4361828630860521
  0.6729985103614207  0.0001952414742930  0.4368227381623144
  0.3267510048815305  0.9998598806230579  0.4324543472652601
  0.5575081568207302  0.0002006514129972  0.4372060336563299
  0.4998030241163962  0.5001948042842241  0.4368818391748684
  0.7300266828462143  0.4998499923751248  0.5630113384161674
  0.3844347144466753  0.5002217228647146  0.4344526556518347
  0.6152288801397578  0.5002302171469847  0.4371819084119140
  0.4421058916963070  0.3334991952728530  0.4360445912397341
  0.6729982820679313  0.3335305400549685  0.4368218996146335
  0.3268804637044916  0.3334711216335268  0.4310323775698837
  0.5575071323790731  0.3335369492132951  0.4371950140303985
  0.2694922854069106  0.8334671767392885  0.4305183613203452
  0.4995638731258679  0.8331565875105067  0.5627878656464558
  0.3841039757215923  0.8331151159978294  0.5631488056180018
  0.6149958602014678  0.8331718286839532  0.5637143137494256
  0.4418357323781295  0.6664884209927923  0.5624634595483665
  0.6726920592190201  0.6664982191542822  0.5636664208529502
  0.3263445854057351  0.6668321752002284  0.5659982849985090
  0.5572807352050162  0.6665029050209543  0.5633509193187698
  0.2694104142933977  0.1663361571734659  0.4291966725729945
  0.4995594743336778  0.1664879087474246  0.5627890443368032
  0.3840819541621309  0.1664093032239446  0.5632388533770650
  0.6149948688781419  0.1665041624107109  0.5637137247600019
  0.4418358414293220  0.9997926596535966  0.5624638733118310
  0.6726920559999989  0.9998306106364018  0.5636664015635551
  0.3263433849436302  0.9993634052828770  0.5660023958600866
  0.5572807544022840  0.9998325785093062  0.5633509522198098
  0.2694102997437725  0.5006018794041335  0.4292005473347794
  0.4995593961566219  0.4998256294461493  0.5627889086359973
  0.3840821305715534  0.4998173432268355  0.5632375321799140
  0.6149948659888481  0.4998395964601686  0.5637137239974743
  0.4418247872504888  0.3331401502058902  0.5624791681941190
  0.6726914753746863  0.3331644476743844  0.5636660751429611
  0.3263210267177470  0.3331017358080002  0.5664980648268338
  0.5572788544058122  0.3331678080708729  0.5633503443188979
  0.4613364041465807  0.8335070380089047  0.4365059008633542
  0.6921304521810073  0.8335253774550542  0.4366138861641536
  0.3458837824215355  0.8334714306376714  0.4335043325122322
  0.5767395124025748  0.8335389968178967  0.4372234896049736
  0.4036297010328088  0.6668670171508121  0.4352789801922980
  0.6344398992827336  0.6668924571757024  0.4370893845368348
  0.2878690096258636  0.6676124681337663  0.4308516202062123
  0.5190356555551302  0.6668682499860926  0.4370266482828230
  0.4613289660818318  0.1668397362681467  0.4364122186316552
  0.6921301760232059  0.1668585070971672  0.4366134490299380
  0.3458808934145368  0.1665436271341129  0.4326502858171500
  0.5767386532746709  0.1668720328976496  0.4372160331477699
  0.4036295256137647  0.0001080035511099  0.4352795853282111
  0.6344399049969924  0.0002237937120969  0.4370896255923447
  0.2878695591567660  0.9993247711030062  0.4308472934821335
  0.5190357891746445  0.0001995841666014  0.4370267162688418
  0.4613288609347749  0.5001731083621197  0.4364118044473590
  0.6921302029306261  0.5001918577825283  0.4366134761134963
  0.3458815121862701  0.5004024166918617  0.4326492778935452
  0.5767385823666016  0.5002057101223324  0.4372160717474758
  0.4036076355273385  0.3334833319430402  0.4349983715422043
  0.6344393778301107  0.3335581763677498  0.4370872209783551
  0.2879118046132775  0.3334704228189496  0.4280100682112449
  0.5190329339439247  0.3335331785589256  0.4369994722837864
  0.4803211136227215  0.9998167906301741  0.5626335988394975
  0.7115727674985184  0.9998484036537096  0.5633304461728728
  0.3648779580898687  0.9996909973478612  0.5638631440639943
  0.5957803599461416  0.9998360987011550  0.5636443529890505
  0.4226045363550674  0.8331344111766454  0.5625266430991911
  0.6535591236973008  0.8331609170551093  0.5637480522704720
  0.3072193246131693  0.8330898466960988  0.5673764081370430
  0.5380464561556623  0.8331626496555706  0.5631768062367108
  0.4803166099805837  0.3331540206948995  0.5626361709416111
  0.7115730974330843  0.3331814626323749  0.5633301964075985
  0.3648972025217943  0.3331068767171448  0.5639841431628873
  0.5957800457880453  0.3331697153860169  0.5636438011366148
  0.4225907149662696  0.1664455938145774  0.5625517723224601
  0.6535584120325568  0.1664918920456840  0.5637476112334666
  0.3071970839351711  0.1659555135178984  0.5679201391126413
  0.5380434653569496  0.1664922853599159  0.5631765007468114
  0.4803210713654105  0.6664917982420339  0.5626331525354679
  0.7115727719731526  0.6665145606564926  0.5633304607657980
  0.3648783788256377  0.6665256456026359  0.5638605423664933
  0.5957803367653878  0.6665032842734805  0.5636443298912831
  0.4225907922888928  0.4998221923649860  0.5625513556791137
  0.6535584091563392  0.4998299494218760  0.5637476308076397
  0.3071965167676423  0.5002389454666563  0.5679184660737202
  0.5380434213960634  0.4998338704875891  0.5631765025601079
  0.2683688714211961  0.8330907793233103  0.5706668115221596
  0.2682317674889760  0.5007578230347878  0.5718999598410819
  0.2682339146310176  0.1654216045697023  0.5718980148601928
  0.7310032501974446  0.8335120336551852  0.4362046480567380
  0.7310039680200608  0.5001780388684062  0.4362049661049618
  0.7310039684618653  0.1668458925907085  0.4362049003780958
  0.2499158225042306  0.6671973282283529  0.5726200889659377
  0.2497349077315119  0.3330861223400911  0.5737488437120924
  0.2499181835852245  0.9989857231767556  0.5726295306385337
  0.7494683360544619  0.0001761117607089  0.4360120153339442
  0.7494687671500172  0.3335106575649058  0.4360128528372497
  0.7494683394252946  0.6668451509737173  0.4360121020417367
  0.2400346883446859  0.8334628380937588  0.4294460007688393
  0.2399832732465302  0.5012298725516530  0.4260541742210469
  0.2399834304530185  0.1657015045632478  0.4260469081579164
  0.7594882423313700  0.8331818161492496  0.5623142621529228
  0.7594880910683920  0.4998495111552833  0.5623127460847580
  0.7594880900402893  0.1665140986618189  0.5623127407140330
  0.2205231707367907  0.6675412644660292  0.5753167807218621
  0.2204125867864143  0.3330997733245882  0.5775862782109749
  0.2205252852372669  0.9986687163159641  0.5753268774759643
  0.7789406395845100  0.0001691914704025  0.4357181636676928
  0.7789410339956758  0.3335049427869346  0.4357195252270614
  0.7789406357379737  0.6668405220989394  0.4357183227297990
  0.2711395335377574  0.3333901694329321  0.5008770109930485

             NaN             NaN             NaN
             NaN             NaN             NaN
             NaN             NaN             NaN
             NaN             NaN             NaN
             NaN             NaN             NaN
             NaN             NaN             NaN
             NaN             NaN             NaN
             NaN             NaN             NaN
             NaN             NaN             NaN
             NaN             NaN             NaN
             NaN             NaN             NaN
             NaN             NaN             NaN
             NaN             NaN             NaN
             NaN             NaN             NaN
             NaN             NaN             NaN
             NaN             NaN             NaN
             NaN             NaN             NaN
             NaN             NaN             NaN
             NaN             NaN             NaN
             NaN             NaN             NaN
             NaN             NaN             NaN
             NaN             NaN             NaN
             NaN             NaN             NaN
             NaN             NaN             NaN
             NaN             NaN             NaN
             NaN             NaN             NaN
             NaN             NaN             NaN
             NaN             NaN             NaN
             NaN             NaN             NaN
             NaN             NaN             NaN
             NaN             NaN             NaN
             NaN             NaN             NaN
             NaN             NaN             NaN
             NaN             NaN             NaN
             NaN             NaN             NaN
             NaN             NaN             NaN
             NaN             NaN             NaN
             NaN             NaN             NaN
             NaN             NaN             NaN
             NaN             NaN             NaN
             NaN             NaN             NaN
             NaN             NaN             NaN
             NaN             NaN             NaN
             NaN             NaN             NaN
             NaN             NaN             NaN
             NaN             NaN             NaN
             NaN             NaN             NaN
             NaN             NaN             NaN
             NaN             NaN             NaN
             NaN             NaN             NaN
             NaN             NaN             NaN
             NaN             NaN             NaN
             NaN             NaN             NaN
             NaN             NaN             NaN
             NaN             NaN             NaN
             NaN             NaN             NaN
             NaN             NaN             NaN
             NaN             NaN             NaN
             NaN             NaN             NaN
             NaN             NaN             NaN
             NaN             NaN             NaN
             NaN             NaN             NaN
             NaN             NaN             NaN
             NaN             NaN             NaN
             NaN             NaN             NaN
             NaN             NaN             NaN
             NaN             NaN             NaN
             NaN             NaN             NaN
             NaN             NaN             NaN
             NaN             NaN             NaN
             NaN             NaN             NaN
             NaN             NaN             NaN
             NaN             NaN             NaN
             NaN             NaN             NaN
             NaN             NaN             NaN
             NaN             NaN             NaN
             NaN             NaN             NaN
             NaN             NaN             NaN
             NaN             NaN             NaN
             NaN             NaN             NaN
             NaN             NaN             NaN
             NaN             NaN             NaN
             NaN             NaN             NaN
             NaN             NaN             NaN
             NaN             NaN             NaN
             NaN             NaN             NaN
             NaN             NaN             NaN
             NaN             NaN             NaN
             NaN             NaN             NaN
             NaN             NaN             NaN
             NaN             NaN             NaN
             NaN             NaN             NaN
             NaN             NaN             NaN
             NaN             NaN             NaN
             NaN             NaN             NaN
             NaN             NaN             NaN
             NaN             NaN             NaN
             NaN             NaN             NaN
             NaN             NaN             NaN
             NaN             NaN             NaN
             NaN             NaN             NaN
             NaN             NaN             NaN
             NaN             NaN             NaN
             NaN             NaN             NaN
             NaN             NaN             NaN
             NaN             NaN             NaN
             NaN             NaN             NaN
             NaN             NaN             NaN
             NaN             NaN             NaN
             NaN             NaN             NaN
             NaN             NaN             NaN
             NaN             NaN             NaN
             NaN             NaN             NaN
             NaN             NaN             NaN
             NaN             NaN             NaN
             NaN             NaN             NaN
             NaN             NaN             NaN
             NaN             NaN             NaN
             NaN             NaN             NaN
             NaN             NaN             NaN
             NaN             NaN             NaN
