C    H    Li                            
   1.0000000000000000     
    37.0938796996999969    0.0000000000000000    0.0000000000000000
     0.0000000000000000    7.3546423911999996    0.0000000000000000
     0.0000000000000000    0.0000000000000000   27.8030738831000015
   C    H    Li
   108    12     1
Direct
  0.4995065403642014  0.8333578302795156  0.4366371182656760
  0.7304880683775793  0.8333098051759130  0.5631062952898725
  0.3840945715514648  0.8333577086546582  0.4362146126543665
  0.6149586241109470  0.8333530284482785  0.4370280533092624
  0.4417999047461115  0.6666947356217156  0.4363920930786072
  0.6727374615892734  0.6666851352447484  0.4368222231665417
  0.3264036417534306  0.6666999199919535  0.4362779246651042
  0.5572233914394886  0.6666899110191342  0.4368977240053443
  0.4995064789853009  0.1666914574392304  0.4366367425475488
  0.7304880804544643  0.1666428957749460  0.5631062530129334
  0.3840931792586202  0.1666902391649369  0.4362104446841615
  0.6149586439729128  0.1666864183593834  0.4370279991266471
  0.4417999076155525  0.0000279107091367  0.4363920276170549
  0.6727374628393141  0.0000181645910534  0.4368221992341061
  0.3264035752931828  0.0000128203793748  0.4362777216420207
  0.5572233952301543  0.0000229958938298  0.4368976794950483
  0.4995064732139241  0.5000243001309816  0.4366367979375166
  0.7304880809234877  0.4999766676480804  0.5631062619475553
  0.3840932036416728  0.5000251967433135  0.4362105727291515
  0.6149586430213509  0.5000196976832645  0.4370280302915998
  0.4417993776461334  0.3333613645520813  0.4363917141799816
  0.6727374759260328  0.3333516679935815  0.4368222091394651
  0.3264049258798299  0.3333564743348937  0.4362772742897978
  0.5572233664045959  0.3333565022946740  0.4368976390054121
  0.2690642999691722  0.8333562313193977  0.4367903884368511
  0.5000586123795375  0.8333055893886567  0.5631656806129753
  0.3846020356923477  0.8332986518511407  0.5627602024346920
  0.6154726723504421  0.8333089442707484  0.5636966949343682
  0.4423377035746384  0.6666350958712642  0.5628600621186287
  0.6731624911355510  0.6666429324327441  0.5637004220167462
  0.3268168231209044  0.6666483487692704  0.5630626273138707
  0.5577696968949888  0.6666408308325255  0.5634773842500653
  0.2691005189801970  0.1666651316632722  0.4366946442571105
  0.5000583198218609  0.1666379901084375  0.5631650189376988
  0.3845981645275592  0.1666292300810133  0.5627574669639939
  0.6154725377622734  0.1666416924881291  0.5636966409553378
  0.4423376855432359  0.9999708533063966  0.5628601085392831
  0.6731624896513083  0.9999765107857822  0.5637004391142333
  0.3268168675970434  0.9999352602124418  0.5630623710239161
  0.5577696979202663  0.9999743978521446  0.5634773953465554
  0.2691004631323386  0.5000482566594577  0.4366954359686873
  0.5000583202202695  0.4999727269952507  0.5631650017203884
  0.3845982290281308  0.4999683668815305  0.5627574132439632
  0.6154725374872403  0.4999759976818058  0.5636966232775557
  0.4423372850777103  0.3333027312881000  0.5628594517615073
  0.6731625865224189  0.3333096667957952  0.5637003794368135
  0.3268097769162762  0.3332931901570374  0.5630722118961011
  0.5577698263584208  0.3333074621709196  0.5634770420895644
  0.4610357219667854  0.8333608099033538  0.4364629047951977
  0.6918685341130284  0.8333515486523707  0.4366722797219802
  0.3455311440166250  0.8333566039061228  0.4362112160358157
  0.5764625202434014  0.8333596126450652  0.4369571075358787
  0.4033029840372784  0.6666918986059704  0.4362396565583157
  0.6341723188477592  0.6666868775818663  0.4369914578352090
  0.2875164616941226  0.6667490916120786  0.4365358204734248
  0.5187519281521134  0.6666927504068589  0.4367119229547693
  0.4610355321879885  0.1666944660671877  0.4364622371741729
  0.6918684526277197  0.1666847631735933  0.4366722706781692
  0.3455289487753565  0.1666831136014681  0.4362032354480277
  0.5764624960927537  0.1666929327725994  0.4369570125302047
  0.4033029874712205  0.0000245993297396  0.4362395620237190
  0.6341723178367155  0.0000199867913127  0.4369914298893443
  0.2875163462679967 -0.0000365099429180  0.4365354247590003
  0.5187519309791924  0.0000259350193665  0.4367118704944021
  0.4610355246611724  0.5000270175387261  0.4364623007167862
  0.6918684529543764  0.5000182961991408  0.4366722938836752
  0.3455289786710413  0.5000298690032409  0.4362034375332394
  0.5764624956766451  0.5000262226405731  0.4369570525066950
  0.4033020429180903  0.3333581399369605  0.4362383729102481
  0.6341723315993921  0.3333534070643204  0.4369914412436945
  0.2875141281525987  0.3333566069674115  0.4365064037612634
  0.5187519265306164  0.3333592987612670  0.4367117966581605
  0.4808181747674958  0.9999726055830396  0.5630623205652050
  0.7120388605654592  0.9999768625087098  0.5634020120456240
  0.3653900081020558  0.9999605753290504  0.5628061901857792
  0.5962604338183268  0.9999755918239289  0.5636457454742380
  0.4231057577725726  0.8333019492546615  0.5628076553623428
  0.6540334548052514  0.8333094306801424  0.5637593899805701
  0.3076873930262420  0.8332889288300741  0.5633482023469710
  0.5385334393397678  0.8333069333670248  0.5633935358687363
  0.4808171414428157  0.3333049667243027  0.5630622836568273
  0.7120387708036713  0.3333098692376712  0.5634019848359587
  0.3653822660058590  0.3332978526271249  0.5628134137892795
  0.5962601859904280  0.3333086040371419  0.5636456948262961
  0.4231030821422048  0.1666344616963125  0.5628038013869922
  0.6540334172377903  0.1666425242859289  0.5637593304709944
  0.3076863479282284  0.1665826673944500  0.5633061009975434
  0.5385332920603951  0.1666397738371430  0.5633928136470809
  0.4808181871194429  0.6666369779241144  0.5630622903335081
  0.7120388573126671  0.6666428104416922  0.5634020077743755
  0.3653900347743779  0.6666341262762947  0.5628060335652635
  0.5962604241371372  0.6666414052364418  0.5636457300499002
  0.4231031417334682  0.4999699539142138  0.5628037654239941
  0.6540334116052837  0.4999764700166417  0.5637593120706563
  0.3076858489125009  0.4999988674552919  0.5633073165047326
  0.5385332827546720  0.4999743708519951  0.5633928042596404
  0.2687985981273891  0.8332846805166022  0.5640693885302156
  0.2687963870163426  0.5001483583544635  0.5641773070554793
  0.2687968668986964  0.1664217935932866  0.5641727340405546
  0.7307491205385110  0.8333508344009599  0.4363657029344726
  0.7307489755688331  0.5000176392892106  0.4363658203572542
  0.7307489769590741  0.1666840438374241  0.4363657843005915
  0.2503609309013498  0.6666926658558220  0.5645365792086695
  0.2504461955038395  0.3332859722864319  0.5649661514133195
  0.2503610550641747  0.9998801632729400  0.5645333087359864
  0.7492100050260502  0.0000175413794438  0.4362263044720985
  0.7492097905120338  0.3333507722419508  0.4362265534239189
  0.7492100051026291  0.6666840201760755  0.4362263606086555
  0.2395914049881853  0.8333567636905879  0.4374138884830183
  0.2395900272309458  0.5002004187678768  0.4370462096747883
  0.2395898953779924  0.1665173141767826  0.4370438257122383
  0.7599521056684410  0.8333079865120373  0.5624383476407520
  0.7599521237454135  0.4999746211111480  0.5624382519903706
  0.7599521225922554  0.1666413452065879  0.5624382070558119
  0.2208600593901958  0.6668627350803225  0.5652868573316986
  0.2209262783895611  0.3332886775690651  0.5673828479177970
  0.2208601492726937  0.9997122550490700  0.5652875092985293
  0.7786871449634513  0.0000189105400100  0.4360077481465411
  0.7786867765448170  0.3333517709078428  0.4360080599927513
  0.7786871444301857  0.6666846265384285  0.4360078584369757
  0.1655098309117853  0.3329195358601791  0.4982479495674746

             NaN             NaN             NaN
             NaN             NaN             NaN
             NaN             NaN             NaN
             NaN             NaN             NaN
             NaN             NaN             NaN
             NaN             NaN             NaN
             NaN             NaN             NaN
             NaN             NaN             NaN
             NaN             NaN             NaN
             NaN             NaN             NaN
             NaN             NaN             NaN
             NaN             NaN             NaN
             NaN             NaN             NaN
             NaN             NaN             NaN
             NaN             NaN             NaN
             NaN             NaN             NaN
             NaN             NaN             NaN
             NaN             NaN             NaN
             NaN             NaN             NaN
             NaN             NaN             NaN
             NaN             NaN             NaN
             NaN             NaN             NaN
             NaN             NaN             NaN
             NaN             NaN             NaN
             NaN             NaN             NaN
             NaN             NaN             NaN
             NaN             NaN             NaN
             NaN             NaN             NaN
             NaN             NaN             NaN
             NaN             NaN             NaN
             NaN             NaN             NaN
             NaN             NaN             NaN
             NaN             NaN             NaN
             NaN             NaN             NaN
             NaN             NaN             NaN
             NaN             NaN             NaN
             NaN             NaN             NaN
             NaN             NaN             NaN
             NaN             NaN             NaN
             NaN             NaN             NaN
             NaN             NaN             NaN
             NaN             NaN             NaN
             NaN             NaN             NaN
             NaN             NaN             NaN
             NaN             NaN             NaN
             NaN             NaN             NaN
             NaN             NaN             NaN
             NaN             NaN             NaN
             NaN             NaN             NaN
             NaN             NaN             NaN
             NaN             NaN             NaN
             NaN             NaN             NaN
             NaN             NaN             NaN
             NaN             NaN             NaN
             NaN             NaN             NaN
             NaN             NaN             NaN
             NaN             NaN             NaN
             NaN             NaN             NaN
             NaN             NaN             NaN
             NaN             NaN             NaN
             NaN             NaN             NaN
             NaN             NaN             NaN
             NaN             NaN             NaN
             NaN             NaN             NaN
             NaN             NaN             NaN
             NaN             NaN             NaN
             NaN             NaN             NaN
             NaN             NaN             NaN
             NaN             NaN             NaN
             NaN             NaN             NaN
             NaN             NaN             NaN
             NaN             NaN             NaN
             NaN             NaN             NaN
             NaN             NaN             NaN
             NaN             NaN             NaN
             NaN             NaN             NaN
             NaN             NaN             NaN
             NaN             NaN             NaN
             NaN             NaN             NaN
             NaN             NaN             NaN
             NaN             NaN             NaN
             NaN             NaN             NaN
             NaN             NaN             NaN
             NaN             NaN             NaN
             NaN             NaN             NaN
             NaN             NaN             NaN
             NaN             NaN             NaN
             NaN             NaN             NaN
             NaN             NaN             NaN
             NaN             NaN             NaN
             NaN             NaN             NaN
             NaN             NaN             NaN
             NaN             NaN             NaN
             NaN             NaN             NaN
             NaN             NaN             NaN
             NaN             NaN             NaN
             NaN             NaN             NaN
             NaN             NaN             NaN
             NaN             NaN             NaN
             NaN             NaN             NaN
             NaN             NaN             NaN
             NaN             NaN             NaN
             NaN             NaN             NaN
             NaN             NaN             NaN
             NaN             NaN             NaN
             NaN             NaN             NaN
             NaN             NaN             NaN
             NaN             NaN             NaN
             NaN             NaN             NaN
             NaN             NaN             NaN
             NaN             NaN             NaN
             NaN             NaN             NaN
             NaN             NaN             NaN
             NaN             NaN             NaN
             NaN             NaN             NaN
             NaN             NaN             NaN
             NaN             NaN             NaN
             NaN             NaN             NaN
             NaN             NaN             NaN
             NaN             NaN             NaN
             NaN             NaN             NaN
