C    Li
   1.0000000000000000     
  14.8037481308000007   0.0000000000000000   0.0000000000000000
  -7.4018740654000004  12.8204219525000003   0.0000000000000000
   0.0000000000000000   0.0000000000000000  27.8030738831000015
C    Li
143  1  
Direct
  0.0016235853388093  0.0037872335663596  0.4364806626335458  
  0.0016228474604947  0.5037905405450999  0.4369136454619935  
  0.5015857575967018  0.0037774859169953  0.4364376381062836  
  0.5016619122782074  0.5038621226845925  0.4289520454548927  
  0.0016096596269622  0.1704342394471898  0.4364439301095148  
  0.0016415130915935  0.6704606954036917  0.4367923511912778  
  0.5015985721006757  0.1703680193969226  0.4350129156498000  
  0.5015802049294704  0.6707613367555790  0.4328584691985799  
  0.0016130885558285  0.3371180827678316  0.4366940401556449  
  0.0016445188643174  0.8371444567629551  0.4366096749717386  
  0.5015876915872789  0.3367882802747941  0.4317438134764145  
  0.5015767019584757  0.8371794235277497  0.4358565651197667  
  0.1682693581016491  0.0037758373597419  0.4361205961324928  
  0.1682170185438066  0.5037896212630787  0.4358360749405383  
  0.6682664338815520  0.0037929079543808  0.4366478324367907  
  0.6686456319266043  0.5038605486772777  0.4325047671896647  
  0.1682186055819427  0.1703758972694851  0.4350523231714213  
  0.1682590862119331  0.6704574462908275  0.4367601503354925  
  0.6682678449242276  0.1704268969934960  0.4364135364272488  
  0.6686428746065115  0.6707647563455937  0.4328852032489152  
  0.1682166281673227  0.3370803732125445  0.4347672841465009  
  0.1682782106737780  0.8371280771605117  0.4368295487304751  
  0.6683359612972889  0.3370767226016356  0.4347400353591511  
  0.6683205218870426  0.8372115517031941  0.4353407115492968  
  0.3349292302923085  0.0037662224964963  0.4360926384704857  
  0.3346943847099888  0.5038597214181613  0.4325119836653334  
  0.8349617154038250  0.0038014333951483  0.4366656509248338  
  0.8350327065950134  0.5037977663637253  0.4358378386249260  
  0.3348948311937887  0.1703310934374168  0.4340735970350932  
  0.3348632754583389  0.6705103152809004  0.4352292670485874  
  0.8349552640894738  0.1704513332223266  0.4369709148338237  
  0.8350960058903305  0.6705287123880483  0.4352765158294994  
  0.3346877965556441  0.3367880547445788  0.4317618887055920  
  0.3349187527165710  0.8371313703441350  0.4365537215470807  
  0.8349572026445707  0.3371124167392210  0.4366810403744519  
  0.8350358441071465  0.8371937490554001  0.4358890191399470  
  0.9978960118380172  0.9958316407159948  0.5647395666820321  
  0.9985259466666800  0.4965031634061859  0.5665266493673772  
  0.4985125016985226  0.9958484147929544  0.5646887716256785  
  0.9995897423013200  0.1641704983873030  0.5647630970386693  
  0.9970350938929380  0.6620316816419588  0.5663525709289289  
  0.4975886500243779  0.1610267023039417  0.5643098689462210  
  0.5027189307531291  0.6656630255454561  0.5689011978076695  
  0.9997626201485964  0.3307469246594692  0.5659926552565181  
  0.9969503868306224  0.8282572491566167  0.5655509658204428  
  0.4956914593845883  0.3255983033202642  0.5615281502481105  
  0.4997540688688516  0.8305294975834323  0.5660028130286056  
  0.1637325677786298  0.9940510363254582  0.5644158079580924  
  0.1689002421026246  0.4964141233441786  0.5670332563976365  
  0.6660609906036382  0.9985756065695804  0.5648456867087356  
  0.6548723381816485  0.4960454340151190  0.5685131905724086  
  0.1639391591224109  0.1610019661718443  0.5643577799291043  
  0.1655767646112505  0.6620191001404935  0.5663312312811359  
  0.6651055413042140  0.1642045052600993  0.5647329765252237  
  0.6635187636978880  0.6656632357349354  0.5689457477881905  
  0.1675921596598093  0.3303996632377840  0.5658350274403178  
  0.1641928913482309  0.8278009562664190  0.5652521547825562  
  0.6633345504174775  0.3304256738113672  0.5657787664367786  
  0.6672699372209495  0.8339524599539919  0.5666482165235590  
  0.3308666389267490  0.9940422668010686  0.5643968307397937  
  0.3417150194720401  0.4960362034158251  0.5685221932222353  
  0.8330507408415069  0.9985680254576500  0.5648796512543470  
  0.8280604818845485  0.4964275542977593  0.5670152734358516  
  0.3299911651365611  0.1594565947046498  0.5629829964760280  
  0.3340999665367869  0.6623979500134121  0.5673130556594164  
  0.8326416971101693  0.1647562461195492  0.5648821488418377  
  0.8288882804547453  0.6624045153480864  0.5673713427075541  
  0.3303938170868049  0.3255798408769865  0.5615423620329483  
  0.3318906430188640  0.8282449274107845  0.5655136585678544  
  0.8315030870396851  0.3307681338943653  0.5659662705313423  
  0.8313617146042375  0.8305342069763311  0.5660896022753601  
  0.0571445822705451  0.1148766628885182  0.4361087153322113  
  0.0571652732587423  0.6148825041112359  0.4369293158582241  
  0.5571631583102085  0.1148652033298501  0.4360658869188369  
  0.5574245138488716  0.6153877578833221  0.4311188901807529  
  0.0571556165919120  0.2815456565328778  0.4361172771503828  
  0.0571731985820462  0.7815711862337610  0.4368131401606684  
  0.5572253322112577  0.2814524038015329  0.4337899346652922  
  0.5572098144052458  0.7817410305154847  0.4347810419834049  
  0.0571381996102057  0.4482159060831281  0.4366311416869599  
  0.0571695048316232  0.9482457811170554  0.4364863751458064  
  0.5574386549170999  0.4480431725194499  0.4305012526990646  
  0.5571647568997911  0.9482639241579616  0.4364587317138396  
  0.2237918149248491  0.1148555747657513  0.4350650854616281  
  0.2237754403241834  0.6148861893652892  0.4360058385174859  
  0.7238379632293676  0.1148985045695861  0.4368329489865868  
  0.7240950732310497  0.6150387865706978  0.4333293769713710  
  0.2237103956397495  0.2814608991810720  0.4338244605624231  
  0.2238199793486172  0.7815654620965421  0.4367714612885187  
  0.7238441434399532  0.2815392932773856  0.4360949089398919  
  0.7239686248025995  0.7817469158432278  0.4348045010547091  
  0.2236818995792462  0.4481939253978800  0.4344108450700250  
  0.2238273340606001  0.9482315653526020  0.4363832750358242  
  0.7239807184788714  0.4481896941237914  0.4343941631650418  
  0.7238460066575565  0.9482624336270076  0.4363915751250509  
  0.3905032546135327  0.1148513794093291  0.4350406737450535  
  0.3904038225500305  0.6150340953720753  0.4333029764090653  
  0.8905096993136906  0.1149032224479668  0.4368543617270439  
  0.8905539806205306  0.6148964591038494  0.4360394229511464  
  0.3904094094974767  0.2813371219401152  0.4320884899185802  
  0.3904764523253777  0.7815996032515946  0.4359477305743052  
  0.8905061356061281  0.2815511994427130  0.4369524448681296  
  0.8905533892477162  0.7816140468159095  0.4359979799991356  
  0.3900795546792772  0.4480376288501106  0.4305129096836077  
  0.3904912895972636  0.9482327659854556  0.4364389684661087  
  0.8905266289710863  0.4482129851791140  0.4366246183251309  
  0.8905297844708555  0.9482734161542206  0.4364881487772020  
  0.1085696796380357  0.0501595608980977  0.5645115524371634  
  0.1110389158421083  0.5512613375665205  0.5666607900488733  
  0.6097604901229728  0.0530792066193711  0.5646079655288322  
  0.6009639562804814  0.5566888910455771  0.5703265191322621  
  0.1105344446553691  0.2187772011002838  0.5647998639203428  
  0.1087614876635438  0.7169186501701931  0.5659239853325875  
  0.6087724300271071  0.2188141104454193  0.5647471017518825  
  0.6128501282487054  0.7251293867833644  0.5685819097927244  
  0.1114728197741173  0.3856234770214034  0.5665878699417553  
  0.1081983537202199  0.8831501224661681  0.5649969264004501  
  0.6063763449199465  0.3846874778297849  0.5654661297852194  
  0.6107753305033915  0.8880868466397502  0.5657122119569508  
  0.2746643075533768  0.0487959751229809  0.5639337241163571  
  0.2821374597998009  0.5514275170084295  0.5678373487198521  
  0.7772570103786959  0.0539789858276194  0.5647261971687243  
  0.7698546229896152  0.5514394680627074  0.5678454787867256  
  0.2788187473195824  0.3846684310489685  0.5654994581683521  
  0.2755357734972802  0.8831325112125169  0.5649903834336979  
  0.7746789008680732  0.3856469614181566  0.5665423309108134  
  0.7778838427245770  0.8880840279062022  0.5657646925033919  
  0.4421551170150638  0.0501706246360019  0.5644646627635678  
  0.4562953589139043  0.5567016274045004  0.5703079829452187  
  0.9438547221683584  0.0530524947828392  0.5646465964392197  
  0.9407880245582740  0.5512675160905564  0.5666640958543672  
  0.4408267425736397  0.2145497707586088  0.5631844621255147  
  0.4449011203353423  0.7193442830734683  0.5672738567842368  
  0.9439105548143312  0.2198295260908796  0.5651692049577764  
  0.9408338841522276  0.7172096409239596  0.5664106732464151  
  0.4369512391068825  0.3734262479097455  0.5544757809282836  
  0.4431640112957946  0.8847749557319539  0.5652821029457537  
  0.9431454009413058  0.3857706750473211  0.5662412034067866  
  0.9422004492834632  0.8847753567583456  0.5653440783455468  
  0.2742250729429901  0.2145379306016427  0.5632083786342197  
  0.2769590565923032  0.7171972255522496  0.5663654112679953  
  0.7764502055680194  0.2198451477093267  0.5651554355455650  
  0.7750362328119421  0.7193460245005068  0.5673552047059649  
  0.5002076840390044  0.4996858185153029  0.5056423023791532  
