C    Li                                 
   1.0000000000000000     
     7.4018740654000004    0.0000000000000000    0.0000000000000000
    -3.7009378863000002    6.4102104834000002    0.0000000000000000
     0.0000000000000000    0.0000000000000000   27.8030738831000015
   C    Li
    36     1
Direct
 -0.0002349754167050  1.0002350270022378  0.4301982212002632
  0.9996244256418051  0.3335175893618315  0.4300322178894821
  0.0000405809954264  0.6671346408844961  0.4302653472272149
  0.3328653559421034  0.9999594431156210  0.4302653372035802
  0.3324619569743142  0.3330691995444911  0.4290706118542174
  0.3324930681130638  0.6675069797783351  0.4292656227885037
  0.6664824266900530  0.0003756058096623  0.4300322240878187
  0.6666610473915253  0.3333389649135918  0.4299405494786138
  0.6669308893459396  0.6675381182491168  0.4290706298861992
  1.0002350637039021 -0.0002350823713347  0.5698017402124821
  0.9999594206558009  0.3328652749990559  0.5697345768940015
  0.0003756431851277  0.6664823606574894  0.5699677010807592
  0.3335176555511145  0.9996243582688588  0.5699676951069110
  0.3330692615462910  0.3324617421772575  0.5709293340060717
  0.3333390094753461  0.6666610103963302  0.5700593737800190
  0.6671347607313575  0.0000405882340292  0.5697345870368062
  0.6675070279103335  0.3324929570454734  0.5707342316264605
  0.6675382149773786  0.6669306816978257  0.5709293517132972
  0.1101233235677343  0.2221105018169802  0.4298991838167127
  0.1105780975772470  0.5558013730822626  0.4299320520502413
  0.1108726883765832  0.8891273169693690  0.4302450727538518
  0.4441769513220848  0.2220610762396999  0.4298185931406757
  0.4436894988429017  0.5563106012188783  0.4280322116472330
  0.4441986363237635  0.8894219380127225  0.4299320525522551
  0.7776646267489380  0.2223353921018718  0.4302728500273250
  0.7779389569622676  0.5558230627291006  0.4298186061839797
  0.7778895544394567  0.8898767407565606  0.4298992008052950
  0.2221105071672463  0.1101231476238842  0.5701007407423196
  0.2220611234695268  0.4441768109515717  0.5701813196859099
  0.2223354205265579  0.7776645929946568  0.5697270651284538
  0.5558014719123946  0.1105780582210245  0.5700678492398185
  0.5563106609586302  0.4436892719438764  0.5719676042462852
  0.5558232078275819  0.7779388759225719  0.5701813326946866
  0.8891273826390337  0.1108726438961284  0.5697548735677723
  0.8894219383610837  0.4441985516099637  0.5700678495095268
  0.8898768199819507  0.7778894689715009  0.5701007574570699
  0.4999928875234839  0.5000071195101048  0.5000008881202022

             NaN             NaN             NaN
             NaN             NaN             NaN
             NaN             NaN             NaN
             NaN             NaN             NaN
             NaN             NaN             NaN
             NaN             NaN             NaN
             NaN             NaN             NaN
             NaN             NaN             NaN
             NaN             NaN             NaN
             NaN             NaN             NaN
             NaN             NaN             NaN
             NaN             NaN             NaN
             NaN             NaN             NaN
             NaN             NaN             NaN
             NaN             NaN             NaN
             NaN             NaN             NaN
             NaN             NaN             NaN
             NaN             NaN             NaN
             NaN             NaN             NaN
             NaN             NaN             NaN
             NaN             NaN             NaN
             NaN             NaN             NaN
             NaN             NaN             NaN
             NaN             NaN             NaN
             NaN             NaN             NaN
             NaN             NaN             NaN
             NaN             NaN             NaN
             NaN             NaN             NaN
             NaN             NaN             NaN
             NaN             NaN             NaN
             NaN             NaN             NaN
             NaN             NaN             NaN
             NaN             NaN             NaN
             NaN             NaN             NaN
             NaN             NaN             NaN
             NaN             NaN             NaN
             NaN             NaN             NaN
