C    Li
   1.0000000000000000     
   7.4018740654000004   0.0000000000000000   0.0000000000000000
  -3.7009378863000002   6.4102104834000002   0.0000000000000000
   0.0000000000000000   0.0000000000000000  27.8030738831000015
C    Li
36  1  
Direct
  0.0000144173786083  0.9999855826213920  0.4301633309700250  
  0.9998822291366810  0.3332519076640920  0.4300454954536050  
  0.0004066327155385  0.6669141791081330  0.4301541374191590  
  0.3330858507458670  0.9995933672512860  0.4301541374191590  
  0.3327745425346150  0.3327628752090210  0.4294841974133520  
  0.3329507072212440  0.6670493225995811  0.4297382970312710  
  0.6667481220189870  0.0001177708077336  0.4300454954536050  
  0.6669004329510601  0.3330995966764330  0.4297822022848270  
  0.6672371545759930  0.6672254872637990  0.4294841974133520  
  0.9999855835389940  0.0000144164610063  0.5698366396442940  
  0.9995933673400540  0.3330858511380940  0.5698458333120801  
  0.0001177712684850  0.6667481232528590  0.5699544748759000  
  0.3332519066011410  0.9998822286983400  0.5699544748759000  
  0.3327628766826580  0.3327745430819040  0.5705157734171140  
  0.3330995967667720  0.6669004330540530  0.5702177684397610  
  0.6669141785449850  0.0004066326043599  0.5698458333120801  
  0.6670493218324079  0.3329507077950850  0.5702616735210380  
  0.6672254867031030  0.6672371531157570  0.5705157734171140  
  0.1105039923525480  0.2218768397606110  0.4300038655909690  
  0.1108956054169000  0.5555134231757960  0.4300172293016900  
  0.1111270145788270  0.8888730339842610  0.4301765557215090  
  0.4443362234161090  0.2217004579125690  0.4297543140907650  
  0.4442623263631590  0.5557376437637840  0.4289687855742490  
  0.4444865619086830  0.8891044244733880  0.4300172293016900  
  0.7779656519178890  0.2220343482180450  0.4301364152989680  
  0.7782995421307670  0.5556637617320850  0.4297543140907650  
  0.7781231603115940  0.8894960374952350  0.4300038655909690  
  0.2218768615652560  0.1105039725021870  0.5699961048615590  
  0.2217004805129720  0.4443362429675520  0.5702456568772331  
  0.2220343555269720  0.7779656519620840  0.5698635551161860  
  0.5555134587442440  0.1108955833571340  0.5699827411395620  
  0.5557377030240080  0.4442623416150870  0.5710311855578351  
  0.5556638017429950  0.7782995419008290  0.5702456568772331  
  0.8888730065429020  0.1111269935655910  0.5698234150187460  
  0.8891044166467170  0.4444865858643820  0.5699827411395620  
  0.8894960275731379  0.7781231608180760  0.5699961048615590  
  0.5000000148877890  0.4999999850707010  0.4999999847568190  
