C    H    Li                            
   1.0000000000000000     
    37.0938796996999969    0.0000000000000000    0.0000000000000000
     0.0000000000000000    7.3546423911999996    0.0000000000000000
     0.0000000000000000    0.0000000000000000   27.8030738831000015
   C    H    Li
   108    12     1
Direct
  0.4993105851887418  0.8333880869888525  0.4366655765163699
  0.7300960732121797  0.8332720406696674  0.5630253034114597
  0.3838014033286928  0.8333841763829113  0.4362355812918543
  0.6148240604021592  0.8333920068106411  0.4370770050417068
  0.4415572594677236  0.6667178291378850  0.4363736997848363
  0.6726219625673748  0.6667235663148757  0.4368514408738530
  0.3260551415015917  0.6667865785469561  0.4364017175430164
  0.5570619433075195  0.6667353670889818  0.4369507712492870
  0.4993109062446727  0.1667216039967294  0.4366637165479126
  0.7300973501692937  0.1666028800405677  0.5630252574586868
  0.3837880710538251  0.1667310010304920  0.4362305753363701
  0.6148241086652328  0.1667249761457119  0.4370766377415156
  0.4415572415231338  0.0000458599792836  0.4363736773647104
  0.6726219638677045  0.0000558716751257  0.4368514515765686
  0.3260544294456807 -0.0000053046937094  0.4364049830718583
  0.5570619348062993  0.0000632741145641  0.4369506965710240
  0.4993108989982952  0.5000545301118184  0.4366637970181889
  0.7300973319104180  0.4999411036216647  0.5630253303675472
  0.3837881666092097  0.5000371824039664  0.4362305740210269
  0.6148241022364849  0.5000590708238972  0.4370766491074441
  0.4415565848744820  0.3333817701090029  0.4363729427220538
  0.6726217239395463  0.3333897905443550  0.4368516585667677
  0.3260384003967154  0.3333894732887867  0.4364493091802418
  0.5570618431941372  0.3333993252587891  0.4369498321404087
  0.2688100627169685  0.8333891638553028  0.4364168317303105
  0.4994999674872656  0.8332660402796208  0.5631131719429764
  0.3838887740500812  0.8332711656540049  0.5623443448382092
  0.6150290546165661  0.8332703532069146  0.5637416721483032
  0.4416992274907268  0.6665759731225782  0.5627169064108121
  0.6727505765018871  0.6666019420897904  0.5636803834826646
  0.3260131952421231  0.6665735346845051  0.5623066744057374
  0.5572746025646966  0.6665965877716525  0.5634903400108824
  0.2687834715289886  0.1665115970967833  0.4363198448595543
  0.4995001754787411  0.1665934302298071  0.5631038759795104
  0.3838568715221267  0.1666460618606265  0.5622652414057175
  0.6150280958130044  0.1666018447017804  0.5637409208690658
  0.4416991305965696  0.9999495011640692  0.5627173176519158
  0.6727505894238093  0.9999359229157364  0.5636802670609649
  0.3260137372372576  0.9999764165430206  0.5623036067890859
  0.5572746086682194  0.9999242087949249  0.5634904930142561
  0.2687846526019849  0.5002686437353010  0.4363172117571520
  0.4995001891439236  0.4999368822415041  0.5631036103826562
  0.3838568041167911  0.4998962789911865  0.5622654631988101
  0.6150280869662558  0.4999387628883344  0.5637409425056310
  0.4417012461567371  0.3332627064712576  0.5626876195816735
  0.6727504342062324  0.3332689078704478  0.5636799700790871
  0.3258839633647091  0.3332748756444576  0.5621138157464189
  0.5572743293549813  0.3332602195798834  0.5634874539875676
  0.4608062742273034  0.8333823511996729  0.4364547591176202
  0.6917618788992861  0.8333872972352200  0.4366937058966842
  0.3451906998239427  0.8333902455785925  0.4363054499320809
  0.5763123735279143  0.8333997183452434  0.4370054535650857
  0.4030232172015199  0.6667172707716849  0.4362345983151268
  0.6340500771332788  0.6667254529953440  0.4370366308674912
  0.2871116907920274  0.6672554878165438  0.4364713657859777
  0.5185654158265125  0.6667273685755768  0.4367549605348636
  0.4608056365551571  0.1667173053109371  0.4364522835555158
  0.6917614824113180  0.1667205287651967  0.4366942244759136
  0.3451658997971739  0.1667200951059241  0.4363055243813049
  0.5763118335522733  0.1667327740766528  0.4370046412564218
  0.4030231954964950  0.0000484340054399  0.4362345937603476
  0.6340500845724557  0.0000567618488511  0.4370366340541262
  0.2871104124546431  0.9995215644871066  0.4364739239451266
  0.5185654086919254  0.0000541254724762  0.4367548724054515
  0.4608056330802879  0.5000475132377830  0.4364523329576633
  0.6917614790685029  0.5000539742343296  0.4366942181761718
  0.3451661233573683  0.5000590245858202  0.4363043643642653
  0.5763118320472236  0.5000666740420047  0.4370046953062123
  0.4030166819075244  0.3333828520105462  0.4362345527928017
  0.6340496940455274  0.3333910749137857  0.4370362987313454
  0.2870191490371314  0.3333917998097299  0.4363222468765378
  0.5185644568092471  0.3333907608942081  0.4367535635001879
  0.4802314339021792  0.9999452672404406  0.5629896794611537
  0.7116420056256606  0.9999415648503477  0.5633474496365124
  0.3646446622760561  0.0000034717959034  0.5622116187021547
  0.5957997822959489  0.9999373169054048  0.5636968186155517
  0.4224396623122769  0.8332618541956034  0.5626115403408279
  0.6536118913518152  0.8332684476036389  0.5637582031540920
  0.3069475368920769  0.8332767583612080  0.5628262095536393
  0.5380196317672562  0.8332565310025691  0.5633847375522330
  0.4802326761948663  0.3332670182278318  0.5629787016630546
  0.7116436950636832  0.3332724103316035  0.5633484103889550
  0.3645485530272046  0.3332725727444933  0.5621426914831580
  0.5958005266875489  0.3332691582475869  0.5636960772847158
  0.4224243401834810  0.1666132012911068  0.5625591273320358
  0.6536106481458520  0.1665978128422493  0.5637574641556059
  0.3067615840876337  0.1663037205059501  0.5623142289480332
  0.5380199621267401  0.1665810657434940  0.5633799208977543
  0.4802315232612437  0.6665873585175823  0.5629893365770899
  0.7116420328833174  0.6666034692500276  0.5633475919541070
  0.3646443630142277  0.6665419511078426  0.5622124931297627
  0.5957997649385660  0.6666010135484294  0.5636967918784843
  0.4224243522140138  0.4999119830757355  0.5625587848314227
  0.6536106535768267  0.4999391639307954  0.5637575491340766
  0.3067617669251593  0.5002468044179834  0.5623182618976468
  0.5380199604417522  0.4999319771555228  0.5633797073430845
  0.2681185493623791  0.8332774379010551  0.5643521990600466
  0.2677973679249476  0.5013029820236901  0.5640990421721990
  0.2677962662637789  0.1652569449347963  0.5640963194303410
  0.7306446600591123  0.8333856764938911  0.4363718008587735
  0.7306445803912970  0.5000530434728740  0.4363731702116028
  0.7306445926079937  0.1667183949202458  0.4363731702924958
  0.2496957184373666  0.6672333326914579  0.5652980255081562
  0.2491204164448863  0.3332835300123522  0.5648541801589164
  0.2496933445398174  0.9993236704673913  0.5652917508509357
  0.7491081280271387  0.0000498601637470  0.4362251711011564
  0.7491078363619512  0.3333831011923721  0.4362276509819548
  0.7491081183761225  0.6667163600827792  0.4362251707195233
  0.2393152131848554  0.8333852033874651  0.4368774501461806
  0.2391474359660719  0.5023407914494592  0.4332991796047200
  0.2391467085182914  0.1644406240946565  0.4332725650342526
  0.7595635765480050  0.8332750185667007  0.5622903256418650
  0.7595647254789057  0.4999464238294255  0.5622890911798160
  0.7595647009877294  0.1666036845990182  0.5622890659210252
  0.2201890475875415  0.6688218085002300  0.5675885110050605
  0.2209075612805531  0.3332892766927938  0.5775459382853206
  0.2201869470791111  0.9977261185160485  0.5675977890766453
  0.7785869347669223  0.0000452392291638  0.4360018516651740
  0.7785866573153419  0.3333779377544884  0.4360038312493391
  0.7785869322917626  0.6667104750891527  0.4360018430194927
  0.2204004103170559  0.3328679357158593  0.5002059698518003

             NaN             NaN             NaN
             NaN             NaN             NaN
             NaN             NaN             NaN
             NaN             NaN             NaN
             NaN             NaN             NaN
             NaN             NaN             NaN
             NaN             NaN             NaN
             NaN             NaN             NaN
             NaN             NaN             NaN
             NaN             NaN             NaN
             NaN             NaN             NaN
             NaN             NaN             NaN
             NaN             NaN             NaN
             NaN             NaN             NaN
             NaN             NaN             NaN
             NaN             NaN             NaN
             NaN             NaN             NaN
             NaN             NaN             NaN
             NaN             NaN             NaN
             NaN             NaN             NaN
             NaN             NaN             NaN
             NaN             NaN             NaN
             NaN             NaN             NaN
             NaN             NaN             NaN
             NaN             NaN             NaN
             NaN             NaN             NaN
             NaN             NaN             NaN
             NaN             NaN             NaN
             NaN             NaN             NaN
             NaN             NaN             NaN
             NaN             NaN             NaN
             NaN             NaN             NaN
             NaN             NaN             NaN
             NaN             NaN             NaN
             NaN             NaN             NaN
             NaN             NaN             NaN
             NaN             NaN             NaN
             NaN             NaN             NaN
             NaN             NaN             NaN
             NaN             NaN             NaN
             NaN             NaN             NaN
             NaN             NaN             NaN
             NaN             NaN             NaN
             NaN             NaN             NaN
             NaN             NaN             NaN
             NaN             NaN             NaN
             NaN             NaN             NaN
             NaN             NaN             NaN
             NaN             NaN             NaN
             NaN             NaN             NaN
             NaN             NaN             NaN
             NaN             NaN             NaN
             NaN             NaN             NaN
             NaN             NaN             NaN
             NaN             NaN             NaN
             NaN             NaN             NaN
             NaN             NaN             NaN
             NaN             NaN             NaN
             NaN             NaN             NaN
             NaN             NaN             NaN
             NaN             NaN             NaN
             NaN             NaN             NaN
             NaN             NaN             NaN
             NaN             NaN             NaN
             NaN             NaN             NaN
             NaN             NaN             NaN
             NaN             NaN             NaN
             NaN             NaN             NaN
             NaN             NaN             NaN
             NaN             NaN             NaN
             NaN             NaN             NaN
             NaN             NaN             NaN
             NaN             NaN             NaN
             NaN             NaN             NaN
             NaN             NaN             NaN
             NaN             NaN             NaN
             NaN             NaN             NaN
             NaN             NaN             NaN
             NaN             NaN             NaN
             NaN             NaN             NaN
             NaN             NaN             NaN
             NaN             NaN             NaN
             NaN             NaN             NaN
             NaN             NaN             NaN
             NaN             NaN             NaN
             NaN             NaN             NaN
             NaN             NaN             NaN
             NaN             NaN             NaN
             NaN             NaN             NaN
             NaN             NaN             NaN
             NaN             NaN             NaN
             NaN             NaN             NaN
             NaN             NaN             NaN
             NaN             NaN             NaN
             NaN             NaN             NaN
             NaN             NaN             NaN
             NaN             NaN             NaN
             NaN             NaN             NaN
             NaN             NaN             NaN
             NaN             NaN             NaN
             NaN             NaN             NaN
             NaN             NaN             NaN
             NaN             NaN             NaN
             NaN             NaN             NaN
             NaN             NaN             NaN
             NaN             NaN             NaN
             NaN             NaN             NaN
             NaN             NaN             NaN
             NaN             NaN             NaN
             NaN             NaN             NaN
             NaN             NaN             NaN
             NaN             NaN             NaN
             NaN             NaN             NaN
             NaN             NaN             NaN
             NaN             NaN             NaN
             NaN             NaN             NaN
             NaN             NaN             NaN
             NaN             NaN             NaN
             NaN             NaN             NaN
             NaN             NaN             NaN
             NaN             NaN             NaN
