C    H    Li                            
   1.0000000000000000     
    37.2234382628999967    0.0000000000000000    0.0000000000000000
     0.0000000000000000    8.5469398498999993    0.0000000000000000
     0.0000000000000000    0.0000000000000000   27.8030738831000015
   C    H    Li
   104    16     1
Direct
  0.4667890606805249  0.0035456934340501  0.4360332595626277
  0.4667891834836816  0.5035457580500627  0.4360341607830968
  0.4337071484877957  0.2535102999328291  0.4360193298883158
  0.4337072758587793  0.7535085658299002  0.4360203244099475
  0.3342062686040326  0.0032293934617500  0.4360959962033351
  0.3342013879401547  0.5032467628828713  0.4361126503911887
  0.3017765859654842  0.2570857340845699  0.4364196898268821
  0.3017787902793342  0.7570722805768240  0.4363507226505669
  0.4005750073955888  0.0040520988845955  0.4360098745707403
  0.4005722009545510  0.5040422710431659  0.4360136043470945
  0.3672849009869668  0.2536191263187217  0.4360083943419694
  0.3672916731476741  0.7536203487916668  0.4360001495459781
  0.4667874625027341  0.9964465746925214  0.5639667998904941
  0.4667884671914745  0.4964459254771995  0.5639631745636732
  0.4337061950682886  0.2464832809158117  0.5639760689890204
  0.4337056544645949  0.7464815115409910  0.5639796253615128
  0.3342012473541942  0.9967498728093434  0.5639036671262667
  0.3342022661237168  0.4967524123274961  0.5638874311699096
  0.3017755856517930  0.2429162319892964  0.5636094784399907
  0.3017776006865301  0.7428964800581855  0.5636295901390450
  0.4005720170071603  0.9959468394380612  0.5639908938452103
  0.4005722878719425  0.4959405910859915  0.5639799220808136
  0.3672845631805512  0.2463708346892444  0.5639886616810385
  0.3672889783200835  0.7463695190025065  0.5639999090335053
  0.4667872871204658  0.1703476183364197  0.4360273442851837
  0.4667870781136146  0.6703478661372737  0.4360284911875266
  0.4337043787186983  0.4204803810851137  0.4360117216799986
  0.4337044757019992  0.9204819761933024  0.4360106642808532
  0.3342072202310915  0.1710103128256893  0.4361039914844925
  0.3342132823973145  0.6710267733842512  0.4360898533864003
  0.3017631800963530  0.4171993957999660  0.4363778477620712
  0.3017655743347887  0.9172018569447670  0.4363082159866057
  0.4005706224228002  0.1700796059406807  0.4359946630313864
  0.4005734323114688  0.6700704398159523  0.4359962568907417
  0.3672802641580016  0.4205726324899827  0.4360092191584556
  0.3672866051965497  0.9205721685095956  0.4359987376119082
  0.3017627946695938  0.0827983911659007  0.5636544539868757
  0.3017607299074342  0.5827704468246755  0.5636587865678397
  0.4667870798895996  0.3296441872158696  0.5639698016313391
  0.4667858628314729  0.8296445679904024  0.5639722315695106
  0.3672821047102066  0.0794170089338361  0.5639978362182745
  0.3672834893776686  0.5794174064694276  0.5639918051978844
  0.3342079491041720  0.3289782297487660  0.5638934181640439
  0.3342110039536803  0.8289606151978464  0.5639154279870823
  0.4337033462248119  0.0795120552005424  0.5639880482397568
  0.4337037218637896  0.5795086857463656  0.5639847919934041
  0.4005702758160474  0.3299135718976534  0.5639961780209203
  0.4005722122712739  0.8299171575699865  0.5640081221291994
  0.5331440140494549  0.9964428341203549  0.5639684510086316
  0.5331435067556265  0.4964438386447713  0.5639677102727105
  0.5662258480045199  0.7464748088465402  0.5639794748144681
  0.5662248083359784  0.2464760075143581  0.5639797472127194
  0.6657181984837957  0.9967475252906124  0.5639329813033439
  0.6657188907542817  0.4967485498902730  0.5639321854423032
  0.6981429869783050  0.7429120046179252  0.5636958511773572
  0.6981433874317082  0.2429094817950327  0.5637105518823179
  0.4999663050470577  0.7462077056310517  0.5639487858631170
  0.4999663802686645  0.2462050317510770  0.5639489387551047
  0.5993544200701268  0.9959340063906150  0.5639917049586105
  0.5993546143716142  0.4959324165182534  0.5639922413170374
  0.6326377735196648  0.7463608020622350  0.5640087155675363
  0.6326389813606390  0.2463612756254659  0.5640112001083343
  0.5331447869184500  0.0035490461999859  0.4360321548881186
  0.5331439356141126  0.5035500160860136  0.4360325309733522
  0.5662263577579065  0.7535172610015185  0.4360204178403478
  0.5662252735046045  0.2535175894796557  0.4360203928914638
  0.6657186075486062  0.0032436847550161  0.4360677021345217
  0.6657195089884721  0.5032442946430270  0.4360679845256991
  0.6981428956534865  0.7570798831775325  0.4362930189708675
  0.6981443982332143  0.2570804780036892  0.4363039057485509
  0.4999673531773923  0.7537862531207584  0.4360513228561798
  0.4999671106984799  0.2537860583261843  0.4360511757329999
  0.5993548712167399  0.0040612146958898  0.4360084061302515
  0.5993551420082586  0.5040571787794418  0.4360081693571135
  0.6326378078674050  0.7536314318644798  0.4359890968473635
  0.6326394122095037  0.2536315678879716  0.4359907927097831
  0.5331471597931544  0.8296417620430205  0.5639733559531048
  0.5331459655670429  0.3296422074902313  0.5639732737037213
  0.5662262300979773  0.5795041380226579  0.5639889926772680
  0.5662261433840153  0.0795057822785819  0.5639890856528682
  0.6657100607470563  0.8289627427134437  0.5639379957146363
  0.6657114053060992  0.3289629882102212  0.5639437364826404
  0.6981564416627423  0.5827856429079286  0.5637349763861651
  0.6981557851321186  0.0827860950837559  0.5637452515980163
  0.4999659272781764  0.5799244927223085  0.5639620925226012
  0.4999658243442672  0.0799215796079639  0.5639641844003213
  0.5993559368567627  0.8299103345637863  0.5640067762632003
  0.5993562460440677  0.3299095677272896  0.5640075037647651
  0.6326416182883811  0.5794108747686727  0.5640099584268529
  0.6326413807164583  0.0794123303820877  0.5640109289506412
  0.6981568693663583  0.9172039837308643  0.4362574247943581
  0.6981580606094673  0.4172064856633451  0.4362646662459122
  0.4999669841705022  0.9200693997464614  0.4360365639317040
  0.4999666494187540  0.4200693267528369  0.4360375755256336
  0.5331480772217982  0.6703514085996894  0.4360270242055429
  0.5331472750557082  0.1703500897313909  0.4360268109024695
  0.6326425288715775  0.9205811974911497  0.4359892654759229
  0.6326439025672613  0.4205806813984219  0.4359897666148013
  0.6657113141582734  0.6710289298975799  0.4360577566046486
  0.6657127137821153  0.1710287180302275  0.4360619809970329
  0.5662278461184999  0.9204881168587886  0.4360112095634308
  0.5662267277402864  0.4204877761824737  0.4360111050521064
  0.5993572844236068  0.6700812432795051  0.4359924222865203
  0.5993575733956369  0.1700841381357096  0.4359928224735601
  0.7238806375332534  0.9777193410414223  0.4365476568556618
  0.7238818455948599  0.4777206647557525  0.4365563922663032
  0.7238531585586808  0.8035126037128260  0.5633361706636408
  0.7238543665850985  0.3035066004952622  0.5633561544308707
  0.7238536265431376  0.6964779412329735  0.4366491367234266
  0.7238552825335733  0.1964799154638289  0.4366636324390246
  0.7238796688347811  0.0222667133336969  0.5634565052904589
  0.7238804553187662  0.5222695053039967  0.5634428379426303
  0.2760251640542138  0.0223440223317156  0.5632931092717068
  0.2760223032551228  0.5222621560794687  0.5632892168982925
  0.2760387932237837  0.1965788519097273  0.4368904021906256
  0.2760691050479505  0.6964296583287022  0.4367359645983394
  0.2760374287228879  0.3034556750002945  0.5631608921106874
  0.2760672232524333  0.8035134168247923  0.5632372591352388
  0.2760419973238183  0.9777524395179542  0.4366243394976936
  0.2760126470368876  0.4776162226891512  0.4367813683504175
  0.1792932657797577  0.3315626197611356  0.4999808200831848

             NaN             NaN             NaN
             NaN             NaN             NaN
             NaN             NaN             NaN
             NaN             NaN             NaN
             NaN             NaN             NaN
             NaN             NaN             NaN
             NaN             NaN             NaN
             NaN             NaN             NaN
             NaN             NaN             NaN
             NaN             NaN             NaN
             NaN             NaN             NaN
             NaN             NaN             NaN
             NaN             NaN             NaN
             NaN             NaN             NaN
             NaN             NaN             NaN
             NaN             NaN             NaN
             NaN             NaN             NaN
             NaN             NaN             NaN
             NaN             NaN             NaN
             NaN             NaN             NaN
             NaN             NaN             NaN
             NaN             NaN             NaN
             NaN             NaN             NaN
             NaN             NaN             NaN
             NaN             NaN             NaN
             NaN             NaN             NaN
             NaN             NaN             NaN
             NaN             NaN             NaN
             NaN             NaN             NaN
             NaN             NaN             NaN
             NaN             NaN             NaN
             NaN             NaN             NaN
             NaN             NaN             NaN
             NaN             NaN             NaN
             NaN             NaN             NaN
             NaN             NaN             NaN
             NaN             NaN             NaN
             NaN             NaN             NaN
             NaN             NaN             NaN
             NaN             NaN             NaN
             NaN             NaN             NaN
             NaN             NaN             NaN
             NaN             NaN             NaN
             NaN             NaN             NaN
             NaN             NaN             NaN
             NaN             NaN             NaN
             NaN             NaN             NaN
             NaN             NaN             NaN
             NaN             NaN             NaN
             NaN             NaN             NaN
             NaN             NaN             NaN
             NaN             NaN             NaN
             NaN             NaN             NaN
             NaN             NaN             NaN
             NaN             NaN             NaN
             NaN             NaN             NaN
             NaN             NaN             NaN
             NaN             NaN             NaN
             NaN             NaN             NaN
             NaN             NaN             NaN
             NaN             NaN             NaN
             NaN             NaN             NaN
             NaN             NaN             NaN
             NaN             NaN             NaN
             NaN             NaN             NaN
             NaN             NaN             NaN
             NaN             NaN             NaN
             NaN             NaN             NaN
             NaN             NaN             NaN
             NaN             NaN             NaN
             NaN             NaN             NaN
             NaN             NaN             NaN
             NaN             NaN             NaN
             NaN             NaN             NaN
             NaN             NaN             NaN
             NaN             NaN             NaN
             NaN             NaN             NaN
             NaN             NaN             NaN
             NaN             NaN             NaN
             NaN             NaN             NaN
             NaN             NaN             NaN
             NaN             NaN             NaN
             NaN             NaN             NaN
             NaN             NaN             NaN
             NaN             NaN             NaN
             NaN             NaN             NaN
             NaN             NaN             NaN
             NaN             NaN             NaN
             NaN             NaN             NaN
             NaN             NaN             NaN
             NaN             NaN             NaN
             NaN             NaN             NaN
             NaN             NaN             NaN
             NaN             NaN             NaN
             NaN             NaN             NaN
             NaN             NaN             NaN
             NaN             NaN             NaN
             NaN             NaN             NaN
             NaN             NaN             NaN
             NaN             NaN             NaN
             NaN             NaN             NaN
             NaN             NaN             NaN
             NaN             NaN             NaN
             NaN             NaN             NaN
             NaN             NaN             NaN
             NaN             NaN             NaN
             NaN             NaN             NaN
             NaN             NaN             NaN
             NaN             NaN             NaN
             NaN             NaN             NaN
             NaN             NaN             NaN
             NaN             NaN             NaN
             NaN             NaN             NaN
             NaN             NaN             NaN
             NaN             NaN             NaN
             NaN             NaN             NaN
             NaN             NaN             NaN
             NaN             NaN             NaN
             NaN             NaN             NaN
             NaN             NaN             NaN
             NaN             NaN             NaN
