C    H    Li                            
   1.0000000000000000     
    37.0938796996999969    0.0000000000000000    0.0000000000000000
     0.0000000000000000    7.3546423911999996    0.0000000000000000
     0.0000000000000000    0.0000000000000000   27.8030738831000015
   C    H    Li
   108    12     1
Direct
  0.4990437872051412  0.8333910796925439  0.4366912052971402
  0.7298911936061863  0.8332486053336798  0.5630219079823090
  0.3835659674986261  0.8334031576164400  0.4365530575324696
  0.6145477778313548  0.8333954336253230  0.4370828679710088
  0.4412986376300981  0.6667363813825529  0.4364817648328680
  0.6723482998300736  0.6667323354993920  0.4368999756156098
  0.3258180873510166  0.6669885489609103  0.4363024879291570
  0.5567891087811263  0.6667303603994892  0.4369588316150119
  0.4990433806257620  0.1667297774386129  0.4366882128609080
  0.7298905010503055  0.1665802498945258  0.5630204021622780
  0.3835397062379577  0.1667332647544389  0.4364401956960559
  0.6145485180657869  0.1667288629240725  0.4370828099281464
  0.4412985730724203  0.0000535901948640  0.4364817741264489
  0.6723482820052290  0.0000621489186219  0.4368999732738263
  0.3258187469399983  0.9998328836014138  0.4362999621125750
  0.5567886161804292  0.0000527837937772  0.4369584724521360
  0.4990433516917915  0.5000519040238405  0.4366882051816169
  0.7298911544640028  0.4999158561370139  0.5630209042272026
  0.3835396981890675  0.5000757666857905  0.4364407005778225
  0.6145485239960219  0.5000608244903270  0.4370828104508264
  0.4412906126999636  0.3333948137951918  0.4364632307853683
  0.6723475520222427  0.3333968800633297  0.4369005320380207
  0.3258661527800538  0.3334078577003634  0.4357794149178811
  0.5567881683791713  0.3333903343021177  0.4369581022268416
  0.2686208701247335  0.8334080007060128  0.4353689383458947
  0.4993796265639391  0.8332452016435504  0.5629936213783900
  0.3838845572589648  0.8332604506565604  0.5622431000376154
  0.6148418661601545  0.8332404404322115  0.5637602972068111
  0.4416331535537811  0.6665838072253102  0.5625157262997467
  0.6725484638703385  0.6665731948919856  0.5637057684201175
  0.3260766719389102  0.6667299887820942  0.5631843466985227
  0.5571154031745816  0.6665872600629406  0.5634460788536546
  0.2684866180557533  0.1661509221565864  0.4340548979640009
  0.4993781800993339  0.1665829488344405  0.5629969999043732
  0.3838614543853954  0.1665923599847374  0.5623438024131105
  0.6148411534711323  0.1665731842563488  0.5637602554614120
  0.4416332448153372  0.9999245306449083  0.5625157665763422
  0.6725483963810875  0.9999057009106709  0.5637057192942100
  0.3260762238748421  0.9998025150046373  0.5631839965970640
  0.5571154314574587  0.9999176628190017  0.5634462400494584
  0.2684857789418139  0.5006567961820030  0.4340718359021880
  0.4993780820725858  0.4999133618420760  0.5629968954032741
  0.3838612617139925  0.4999242172969015  0.5623441137020709
  0.6148411531382219  0.4999080379767288  0.5637602222721909
  0.4416294978450708  0.3332550081623199  0.5625354617766345
  0.6725483004259976  0.3332393945432996  0.5637057134880165
  0.3260220319055446  0.3332636594258829  0.5636312820919228
  0.5571149834935081  0.3332528172374596  0.5634462986990373
  0.4605431336545129  0.8333940289206623  0.4365167458132619
  0.6914915550578652  0.8333979749436020  0.4367536843922991
  0.3449788961127688  0.8334087708758572  0.4365640954482758
  0.5760340833268955  0.8333923298914973  0.4370040071378897
  0.4027801858015831  0.6667485290975541  0.4364743325435729
  0.6337738194711053  0.6667295808689245  0.4370448914917808
  0.2869494610477639  0.6677906864926985  0.4355131994558501
  0.5182907619386099  0.6667264394418655  0.4367746952003105
  0.4605386948983292  0.1667363494977732  0.4365045071842082
  0.6914910661952042  0.1667320341060418  0.4367545860391459
  0.3449306908532830  0.1666776775333488  0.4362171000568547
  0.5760332479486381  0.1667262363829614  0.4370035828868522
  0.4027800879690361  0.0000576841334888  0.4364741205102411
  0.6337738129127433  0.0000600831130469  0.4370448898028744
  0.2869500420026295  0.9990223273903621  0.4355036488545579
  0.5182907420834487  0.0000554615679202  0.4367747058110919
  0.4605387020153661  0.5000516224069770  0.4365045060539813
  0.6914910696938381  0.5000646515420258  0.4367545877230155
  0.3449307092069722  0.5001380159547519  0.4362190886553680
  0.5760332736479060  0.5000594773769635  0.4370035711426725
  0.4027568372777803  0.3334019712033436  0.4364031360290164
  0.6337732195517483  0.3333953671859510  0.4370448812468094
  0.2868844429014050  0.3334088402550544  0.4336500533465324
  0.5182891036785005  0.3333911730538539  0.4367731790268257
  0.4801302658820596  0.9999223054220939  0.5628466077865280
  0.7114362041381508  0.9999148950698240  0.5633516444482405
  0.3646594389206333  0.9999145480829836  0.5623865024752864
  0.5956247141157081  0.9999121749665512  0.5636943644478227
  0.4223964367451972  0.8332529932567170  0.5623789572593259
  0.6534125263649122  0.8332347791151835  0.5637923523665241
  0.3069633740425350  0.8332648772746979  0.5638279647742653
  0.5378744053107214  0.8332516921492772  0.5633140444021311
  0.4801295677278293  0.3332500444143807  0.5628538418670330
  0.7114368144216646  0.3332477154660564  0.5633516703257067
  0.3646285980878428  0.3332576460644924  0.5625612073274123
  0.5956250594677871  0.3332449536887860  0.5636946505963422
  0.4223849769046745  0.1665823733898666  0.5624048051107847
  0.6534120339836489  0.1665659717726446  0.5637919587746075
  0.3069358555207121  0.1662854191323385  0.5643260662800783
  0.5378736819987847  0.1665797054250847  0.5633139657487296
  0.4801310211378289  0.6665797729631054  0.5628461437591615
  0.7114363096897758  0.6665812850895985  0.5633518692110807
  0.3646598755025452  0.6666070432913404  0.5623868703778969
  0.5956247151064635  0.6665780897321918  0.5636942683712729
  0.4223848169394624  0.4999212747625743  0.5624048501758032
  0.6534120754300555  0.4999037163095092  0.5637920209821080
  0.3069363615607140  0.5002500411329187  0.5643262722581275
  0.5378738859882138  0.4999220421368902  0.5633138190629972
  0.2681151514340546  0.8332739810134944  0.5657934124552496
  0.2679939629684290  0.5010109997177429  0.5671507742869575
  0.2679931972437247  0.1655385147664049  0.5671488260949219
  0.7303739480972848  0.8333957488494487  0.4364140353532822
  0.7303754610543611  0.5000590637604889  0.4364173283369351
  0.7303754491856875  0.1667265660992890  0.4364173205270950
  0.2496838112430783  0.6672355454869785  0.5673311572233153
  0.2494967331922308  0.3332757763149911  0.5694698522961391
  0.2496832608843894  0.9993138901483081  0.5673280450504687
  0.7488447681786983  0.0000581932889317  0.4362423542825188
  0.7488452077580352  0.3333927524586761  0.4362463755686938
  0.7488447628241809  0.6667270995483363  0.4362423660809061
  0.2391395418693820  0.8334096701470125  0.4351850151158560
  0.2390866204979935  0.5030823204716657  0.4288529376788109
  0.2390887982496422  0.1637270218969199  0.4288204535545435
  0.7593543781375561  0.8332530121121867  0.5622955953046432
  0.7593543039615621  0.4999200043584496  0.5622924106692255
  0.7593543343720178  0.1665834787998560  0.5622922431786260
  0.2202369423114511  0.6679500252997407  0.5695057244395091
  0.2203433693768916  0.3332801332351150  0.5759164631132407
  0.2202366644387148  0.9986020427588530  0.5695085694831331
  0.7783223901424252  0.0000612303989108  0.4359700306327495
  0.7783227952601229  0.3333966297098066  0.4359740869702107
  0.7783223923903513  0.6667319830206627  0.4359700455594593
  0.2481392948004354  0.3331867818636586  0.4936533999116360

             NaN             NaN             NaN
             NaN             NaN             NaN
             NaN             NaN             NaN
             NaN             NaN             NaN
             NaN             NaN             NaN
             NaN             NaN             NaN
             NaN             NaN             NaN
             NaN             NaN             NaN
             NaN             NaN             NaN
             NaN             NaN             NaN
             NaN             NaN             NaN
             NaN             NaN             NaN
             NaN             NaN             NaN
             NaN             NaN             NaN
             NaN             NaN             NaN
             NaN             NaN             NaN
             NaN             NaN             NaN
             NaN             NaN             NaN
             NaN             NaN             NaN
             NaN             NaN             NaN
             NaN             NaN             NaN
             NaN             NaN             NaN
             NaN             NaN             NaN
             NaN             NaN             NaN
             NaN             NaN             NaN
             NaN             NaN             NaN
             NaN             NaN             NaN
             NaN             NaN             NaN
             NaN             NaN             NaN
             NaN             NaN             NaN
             NaN             NaN             NaN
             NaN             NaN             NaN
             NaN             NaN             NaN
             NaN             NaN             NaN
             NaN             NaN             NaN
             NaN             NaN             NaN
             NaN             NaN             NaN
             NaN             NaN             NaN
             NaN             NaN             NaN
             NaN             NaN             NaN
             NaN             NaN             NaN
             NaN             NaN             NaN
             NaN             NaN             NaN
             NaN             NaN             NaN
             NaN             NaN             NaN
             NaN             NaN             NaN
             NaN             NaN             NaN
             NaN             NaN             NaN
             NaN             NaN             NaN
             NaN             NaN             NaN
             NaN             NaN             NaN
             NaN             NaN             NaN
             NaN             NaN             NaN
             NaN             NaN             NaN
             NaN             NaN             NaN
             NaN             NaN             NaN
             NaN             NaN             NaN
             NaN             NaN             NaN
             NaN             NaN             NaN
             NaN             NaN             NaN
             NaN             NaN             NaN
             NaN             NaN             NaN
             NaN             NaN             NaN
             NaN             NaN             NaN
             NaN             NaN             NaN
             NaN             NaN             NaN
             NaN             NaN             NaN
             NaN             NaN             NaN
             NaN             NaN             NaN
             NaN             NaN             NaN
             NaN             NaN             NaN
             NaN             NaN             NaN
             NaN             NaN             NaN
             NaN             NaN             NaN
             NaN             NaN             NaN
             NaN             NaN             NaN
             NaN             NaN             NaN
             NaN             NaN             NaN
             NaN             NaN             NaN
             NaN             NaN             NaN
             NaN             NaN             NaN
             NaN             NaN             NaN
             NaN             NaN             NaN
             NaN             NaN             NaN
             NaN             NaN             NaN
             NaN             NaN             NaN
             NaN             NaN             NaN
             NaN             NaN             NaN
             NaN             NaN             NaN
             NaN             NaN             NaN
             NaN             NaN             NaN
             NaN             NaN             NaN
             NaN             NaN             NaN
             NaN             NaN             NaN
             NaN             NaN             NaN
             NaN             NaN             NaN
             NaN             NaN             NaN
             NaN             NaN             NaN
             NaN             NaN             NaN
             NaN             NaN             NaN
             NaN             NaN             NaN
             NaN             NaN             NaN
             NaN             NaN             NaN
             NaN             NaN             NaN
             NaN             NaN             NaN
             NaN             NaN             NaN
             NaN             NaN             NaN
             NaN             NaN             NaN
             NaN             NaN             NaN
             NaN             NaN             NaN
             NaN             NaN             NaN
             NaN             NaN             NaN
             NaN             NaN             NaN
             NaN             NaN             NaN
             NaN             NaN             NaN
             NaN             NaN             NaN
             NaN             NaN             NaN
             NaN             NaN             NaN
             NaN             NaN             NaN
             NaN             NaN             NaN
             NaN             NaN             NaN
