C    H    Li                            
   1.0000000000000000     
    37.0938796996999969    0.0000000000000000    0.0000000000000000
     0.0000000000000000    7.3546423911999996    0.0000000000000000
     0.0000000000000000    0.0000000000000000   27.8030738831000015
   C    H    Li
   108    12     1
Direct
  0.4991177412143317  0.8333840415341576  0.4367228212785789
  0.7300140999013152  0.8332610760714662  0.5630809682163169
  0.3836184441795856  0.8333903959382954  0.4365181800199076
  0.6146402259124940  0.8334011958441117  0.4370285229871071
  0.4413608982320493  0.6667301794376180  0.4365163292750479
  0.6724423301166194  0.6667513524915843  0.4368154413610718
  0.3258627476382963  0.6669503700253158  0.4362738748730409
  0.5568762243820935  0.6667268216810578  0.4369494775907430
  0.4991177108673893  0.1667228276296734  0.4367206329220596
  0.7300142720660792  0.1665919326810128  0.5630801367664230
  0.3835902757220613  0.1667281195635181  0.4364409294778885
  0.6146408883317745  0.1667351859871786  0.4370286490565048
  0.4413606798579232  0.0000501674882929  0.4365163276462822
  0.6724423553068661  0.0000816888619183  0.4368155098213745
  0.3258629669843393  0.9998206984092233  0.4362706001999539
  0.5568762417215928  0.0000504009453123  0.4369494099034965
  0.4991175481739508  0.5000447069709359  0.4367205841652563
  0.7300142345472468  0.4999287804820667  0.5630803127745845
  0.3835902480799502  0.5000516853203023  0.4364415162565278
  0.6146409262604875  0.5000669032853357  0.4370287016261981
  0.4413538162778980  0.3333870845157581  0.4365033216581046
  0.6724416095389691  0.3334160795070534  0.4368165089536341
  0.3258958908810729  0.3333833629956822  0.4359033455636117
  0.5568758976481897  0.3333886126577776  0.4369491546985243
  0.2686724601197721  0.8333802685450011  0.4352443659777926
  0.4994955604432538  0.8332658553647281  0.5630787741316351
  0.3839948958904920  0.8332562185017123  0.5624151945334144
  0.6149655713985486  0.8332582579761096  0.5637206438263449
  0.4417464757741298  0.6665929264836646  0.5626671733296127
  0.6726732139016923  0.6665810654106461  0.5636744774801387
  0.3261828691720436  0.6667084744636037  0.5632124443698582
  0.5572345130901805  0.6665939351995305  0.5634632698764119
  0.2685118992968326  0.1661325021684220  0.4342005893821540
  0.4994943564234875  0.1665981341521689  0.5630791422709871
  0.3839688764632068  0.1665913230393226  0.5624930061212994
  0.6149647807689322  0.1665903790654985  0.5637206801607144
  0.4417465466898583  0.9999400405176579  0.5626672870809988
  0.6726731795875009  0.9999139426443392  0.5636745934325028
  0.3261823026059611  0.9998063606559431  0.5632101893514109
  0.5572345061665513  0.9999241050631351  0.5634634839657131
  0.2685117001783264  0.5006220975251395  0.4342145984539912
  0.4994943203796038  0.4999336603685308  0.5630790355773719
  0.3839690200419051  0.4999173795034198  0.5624935136139662
  0.6149648072199706  0.4999261029014049  0.5637203198883231
  0.4417429614447972  0.3332667097085062  0.5626799239551468
  0.6726730218169131  0.3332474790821724  0.5636745960103423
  0.3261207437474972  0.3332552598408888  0.5635892326466431
  0.5572342454169021  0.3332590737120877  0.5634626673375717
  0.4606148068093991  0.8333881979637944  0.4365575845258592
  0.6915847708645485  0.8334192525248116  0.4366678454921323
  0.3450262536577793  0.8333852572901785  0.4364942100233644
  0.5761246028005468  0.8333902309631225  0.4369787679818969
  0.4028378382857249  0.6667322758460039  0.4364702907079676
  0.6338659161321564  0.6667379875046475  0.4369822503222123
  0.2869895000672668  0.6677498521140578  0.4354945782860909
  0.5183743231026923  0.6667202261810492  0.4367947903209945
  0.4606113478061164  0.1667298467807849  0.4365490043391397
  0.6915841940971906  0.1667521596081865  0.4366687461831597
  0.3449750489111356  0.1666758007299219  0.4362444227900953
  0.5761238753509973  0.1667237576375492  0.4369783254442229
  0.4028378041418882  0.0000492730615966  0.4364700698724300
  0.6338657487337914  0.0000674840685828  0.4369822173222825
  0.2869897239640503  0.9990089048446531  0.4354866487450452
  0.5183744019789567  0.0000478248219398  0.4367947867735538
  0.4606112002512838  0.5000448168302419  0.4365489166026301
  0.6915842280094575  0.5000856363738757  0.4366687704443273
  0.3449748660335517  0.5000938312759602  0.4362466675361150
  0.5761238987372925  0.5000570369695069  0.4369783908842499
  0.4028163346913490  0.3333899432220443  0.4364228373698361
  0.6338652330057777  0.3334027393596622  0.4369825645371403
  0.2868973073384815  0.3333811025290515  0.4339057921148226
  0.5183727963497449  0.3333841938239355  0.4367937408381569
  0.4802464271365293  0.9999392630411112  0.5629513946979775
  0.7115588584515204  0.9999273094261080  0.5633768561873298
  0.3647657619029401  0.9999107803492957  0.5625170555345224
  0.5957449884692807  0.9999270545533364  0.5636720174184739
  0.4225074170411932  0.8332659987745699  0.5625522604930995
  0.6535364868986948  0.8332445978405761  0.5637455079918929
  0.3070696435370006  0.8332548955236251  0.5638304389599880
  0.5379912753315782  0.8332582279374375  0.5633566553345067
  0.4802451278595874  0.3332666329199376  0.5629545844802604
  0.7115595408161947  0.3332597277651485  0.5633771031400449
  0.3647284412217783  0.3332553637612441  0.5626577774273455
  0.5957453772736260  0.3332597674622686  0.5636719949515512
  0.4224944008692252  0.1665979058700440  0.5625685677369103
  0.6535358817467265  0.1665753564072769  0.5637452965206317
  0.3070314544911451  0.1662767874276916  0.5642277755129017
  0.5379909819145097  0.1665871760027265  0.5633552940579100
  0.4802463723621674  0.6665940595114537  0.5629512706285045
  0.7115588932567273  0.6665929400076681  0.5633768029955697
  0.3647661395372831  0.6665956733571859  0.5625178051726766
  0.5957449853441834  0.6665922666793260  0.5636717491188528
  0.4224944809931842  0.4999330045994213  0.5625686179896433
  0.6535358952310356  0.4999138098507978  0.5637451069674821
  0.3070325417191481  0.5002354980597430  0.5642320476549950
  0.5379909657654796  0.4999294172605336  0.5633551061853428
  0.2682246913492411  0.8332580366716832  0.5657334180458607
  0.2680949575433750  0.5009984057168219  0.5669423586044590
  0.2680941794771601  0.1655216728851127  0.5669383173961040
  0.7304699047547064  0.8334145913438356  0.4363328530721705
  0.7304705204417236  0.5000805309648416  0.4363350819969814
  0.7304705554680285  0.1667480071122944  0.4363350503301388
  0.2497801207744919  0.6672280434397942  0.5672248116076519
  0.2495848241123205  0.3332615875094458  0.5691705637390295
  0.2497797973212571  0.9992899423538077  0.5672215020157366
  0.7489394377207854  0.0000781345435560  0.4361700272745617
  0.7489397918547044  0.3334126215264164  0.4361741001755611
  0.7489394050958987  0.6667469350869335  0.4361700477858892
  0.2391894218511427  0.8333790573710960  0.4349908789805687
  0.2391192785050040  0.5031454161257787  0.4288392245033113
  0.2391209024027302  0.1636122633737127  0.4288081372922315
  0.7594784903843202  0.8332638091097524  0.5624187831827951
  0.7594785722503414  0.4999320000737441  0.5624161596589234
  0.7594785945997389  0.1665953590401522  0.5624162225726426
  0.2203316324935724  0.6679880083712378  0.5694093546758063
  0.2204608195254205  0.3332673068933605  0.5759159838995466
  0.2203313164044769  0.9985347350646770  0.5694101062572037
  0.7784175447545472  0.0000762776168481  0.4359161107013933
  0.7784178837661886  0.3334112718411778  0.4359205154612701
  0.7784175513260836  0.6667465860606664  0.4359161045823101
  0.2466720817276460  0.3331633327488975  0.4932990375446213

             NaN             NaN             NaN
             NaN             NaN             NaN
             NaN             NaN             NaN
             NaN             NaN             NaN
             NaN             NaN             NaN
             NaN             NaN             NaN
             NaN             NaN             NaN
             NaN             NaN             NaN
             NaN             NaN             NaN
             NaN             NaN             NaN
             NaN             NaN             NaN
             NaN             NaN             NaN
             NaN             NaN             NaN
             NaN             NaN             NaN
             NaN             NaN             NaN
             NaN             NaN             NaN
             NaN             NaN             NaN
             NaN             NaN             NaN
             NaN             NaN             NaN
             NaN             NaN             NaN
             NaN             NaN             NaN
             NaN             NaN             NaN
             NaN             NaN             NaN
             NaN             NaN             NaN
             NaN             NaN             NaN
             NaN             NaN             NaN
             NaN             NaN             NaN
             NaN             NaN             NaN
             NaN             NaN             NaN
             NaN             NaN             NaN
             NaN             NaN             NaN
             NaN             NaN             NaN
             NaN             NaN             NaN
             NaN             NaN             NaN
             NaN             NaN             NaN
             NaN             NaN             NaN
             NaN             NaN             NaN
             NaN             NaN             NaN
             NaN             NaN             NaN
             NaN             NaN             NaN
             NaN             NaN             NaN
             NaN             NaN             NaN
             NaN             NaN             NaN
             NaN             NaN             NaN
             NaN             NaN             NaN
             NaN             NaN             NaN
             NaN             NaN             NaN
             NaN             NaN             NaN
             NaN             NaN             NaN
             NaN             NaN             NaN
             NaN             NaN             NaN
             NaN             NaN             NaN
             NaN             NaN             NaN
             NaN             NaN             NaN
             NaN             NaN             NaN
             NaN             NaN             NaN
             NaN             NaN             NaN
             NaN             NaN             NaN
             NaN             NaN             NaN
             NaN             NaN             NaN
             NaN             NaN             NaN
             NaN             NaN             NaN
             NaN             NaN             NaN
             NaN             NaN             NaN
             NaN             NaN             NaN
             NaN             NaN             NaN
             NaN             NaN             NaN
             NaN             NaN             NaN
             NaN             NaN             NaN
             NaN             NaN             NaN
             NaN             NaN             NaN
             NaN             NaN             NaN
             NaN             NaN             NaN
             NaN             NaN             NaN
             NaN             NaN             NaN
             NaN             NaN             NaN
             NaN             NaN             NaN
             NaN             NaN             NaN
             NaN             NaN             NaN
             NaN             NaN             NaN
             NaN             NaN             NaN
             NaN             NaN             NaN
             NaN             NaN             NaN
             NaN             NaN             NaN
             NaN             NaN             NaN
             NaN             NaN             NaN
             NaN             NaN             NaN
             NaN             NaN             NaN
             NaN             NaN             NaN
             NaN             NaN             NaN
             NaN             NaN             NaN
             NaN             NaN             NaN
             NaN             NaN             NaN
             NaN             NaN             NaN
             NaN             NaN             NaN
             NaN             NaN             NaN
             NaN             NaN             NaN
             NaN             NaN             NaN
             NaN             NaN             NaN
             NaN             NaN             NaN
             NaN             NaN             NaN
             NaN             NaN             NaN
             NaN             NaN             NaN
             NaN             NaN             NaN
             NaN             NaN             NaN
             NaN             NaN             NaN
             NaN             NaN             NaN
             NaN             NaN             NaN
             NaN             NaN             NaN
             NaN             NaN             NaN
             NaN             NaN             NaN
             NaN             NaN             NaN
             NaN             NaN             NaN
             NaN             NaN             NaN
             NaN             NaN             NaN
             NaN             NaN             NaN
             NaN             NaN             NaN
             NaN             NaN             NaN
             NaN             NaN             NaN
             NaN             NaN             NaN
             NaN             NaN             NaN
