C    Li                                 
   1.0000000000000000     
    14.8037481308000007    0.0000000000000000    0.0000000000000000
    -7.4018740654000004   12.8204219525000003    0.0000000000000000
     0.0000000000000000    0.0000000000000000   27.8030738831000015
   C    Li
   143     1
Direct
  0.9998019622448159  0.9998102083795475  0.4358314607957749
  0.9998181478391844  0.4998412206620116  0.4358834090673067
  0.4998312069990614  0.9998354818831895  0.4352446021812194
  0.4999370659311469  0.4999845223216618  0.4361723532175478
  0.9998045531800851  0.1664939974254899  0.4361121625878557
  0.9998258856791427  0.6665039644614290  0.4356667797139995
  0.4998279694197584  0.1664399491941522  0.4368696675406135
  0.4998633869119384  0.6666003806221353  0.4341661360597363
  0.9998080609201815  0.3331796535523400  0.4360715348191516
  0.9998123556080999  0.8331587742182215  0.4355702375098376
  0.4998492572884405  0.3330441131544248  0.4374456401453117
  0.4998374406538723  0.8332102881002644  0.4340075350640839
  0.1664581950862283  0.9997902891161816  0.4362520262433675
  0.1664448157811428  0.4998605391241254  0.4353501087678264
  0.6665057949724195  0.9998627463288854  0.4347591354927474
  0.6666745977839289  0.4999120026412034  0.4367019852140839
  0.1664081728470101  0.1664181443602223  0.4368129573348628
  0.1664802014227416  0.6665103203222292  0.4350346812145903
  0.6665044546613488  0.1665030371372717  0.4361071205906000
  0.6665700572215463  0.6666017017826427  0.4350986560802846
  0.1664218173301679  0.3331532998001404  0.4363150642306968
  0.1664817809740776  0.8331570642395570  0.4354128735629768
  0.6665420156915102  0.3331596761069080  0.4370878756698910
  0.6665241651067890  0.8332167338740181  0.4341952132395084
  0.3331458996971395  0.9997938083179468  0.4360084027946147
  0.3330261728976541  0.4999308960577032  0.4353272976136768
  0.8331661512298544  0.9998523915091486  0.4351084233575812
  0.8332066411657145  0.4998552263182444  0.4364663920412404
  0.3330869481063783  0.1663538843655231  0.4372125698339631
  0.3331448897203978  0.6665375927317525  0.4342654195052711
  0.8331594927629217  0.1665104493710347  0.4357440225025340
  0.8331821884080340  0.6665219562114657  0.4357889860024147
  0.3329901550510765  0.3329983367506452  0.4370358608595588
  0.3331615244370331  0.8331802914965661  0.4346966847030856
  0.8331765276674400  0.3331793843318716  0.4363843677568198
  0.8331812058558576  0.8331985805800892  0.4350550881151434
  0.0007463942307902  0.0005578773715655  0.5633506888018863
  0.0005138772999309  0.5008653126991486  0.5635882606160723
  0.5011050125702399  0.0013493826957034  0.5615634954856323
  0.0024467317710066  0.1683690889810311  0.5646276369891312
  0.9993676879132700  0.6668842035063109  0.5633167195024864
  0.5010159702664823  0.1659135656430265  0.5676251096240117
  0.5013110620377633  0.6721865227522383  0.5577252904453592
  0.0024512503255505  0.3348286591415916  0.5638637831305423
  0.9994383029035040  0.8331811505344295  0.5627218648796044
  0.5005595704828479  0.3296491267972136  0.5813899000975059
  0.5012087602444419  0.8367122167399029  0.5585782084803630
  0.1668331802693354  0.9999074419189575  0.5644295435324845
  0.1681526304500806  0.5014753021276125  0.5628895910920307
  0.6683592256684315  0.0019019598814776  0.5606920851215541
  0.6628281763631991  0.4987412371570509  0.5700223841606376
  0.1682683769136216  0.1673217183024937  0.5679791654634133
  0.1667883487903063  0.6675819988037954  0.5617364661398215
  0.6682223012587775  0.1677158961744876  0.5640753476910514
  0.6634941374186240  0.6655277474449153  0.5635206063398913
  0.1706171175207614  0.3354645682311292  0.5671403891272114
  0.1664317396368168  0.8335524525276610  0.5622776024279411
  0.6673539149144817  0.3334005322137320  0.5694289399430316
  0.6680684260219089  0.8355624142033784  0.5593112011396641
  0.3336444932546220  1.0001174224656970  0.5636744115044419
  0.3369120366375218  0.5029485496273278  0.5635903748814698
  0.8350889239731786  0.0016854273453876  0.5618935659665689
  0.8325393262260981  0.5001724673423965  0.5659224160419936
  0.3338321259461706  0.1655536139954240  0.5715248508734114
  0.3340089756780158  0.6687536833225701  0.5590749560102911
  0.8354116793136964  0.1682383186334116  0.5630448879149932
  0.8316180040246101  0.6661596896559363  0.5641677081590202
  0.3365731244621415  0.3341302301164852  0.5791582117320008
  0.3336631811291537  0.8345110857125085  0.5604048267252902
  0.8347252392734574  0.3343374194812290  0.5644409672289251
  0.8329107677025680  0.8335122975831080  0.5618502371289271
  0.0553257291376388  0.1109095997527327  0.4362645085823822
  0.0553714155961127  0.6109441293356687  0.4355281968359705
  0.5553979715867721  0.1109285712678071  0.4360918480445866
  0.5555243943812342  0.6112121867086659  0.4349955882719324
  0.0553386085382405  0.2776073980285564  0.4362075210295904
  0.0553703304475403  0.7776056336865536  0.4355104533878262
  0.5554435078608206  0.2775342623424713  0.4373206279613178
  0.5554197075415283  0.7776879714383618  0.4338884863962514
  0.0553482324333169  0.4442850847261232  0.4358007923084964
  0.0553518514760176  0.9442622917380827  0.4358522552459228
  0.5555305896496840  0.4442663729864041  0.4369601639194895
  0.5553925924526679  0.9443097572458884  0.4345259471600362
  0.2219905400473801  0.1108814113828381  0.4368420718165624
  0.2220349912095113  0.6109583084620133  0.4347969843850184
  0.7220552055526194  0.1109582480487149  0.4354838363997249
  0.7220924494342658  0.6109915792522992  0.4358959154393155
  0.2218659787523086  0.2775069198902461  0.4368474075152942
  0.2220426366161437  0.7776183868808401  0.4349784820215676
  0.7220710484796081  0.2776106124986418  0.4366150747999177
  0.7220876501893717  0.7776875036500027  0.4346222629210796
  0.2219601465334270  0.4442873178545826  0.4356342438661508
  0.2220337711261826  0.9442597610151376  0.4358748335661529
  0.7221174980152372  0.4442902525064329  0.4368970056755120
  0.7220650886879252  0.9443151369432067  0.4345386087122353
  0.3887066163545591  0.1108848003730994  0.4367837284169096
  0.3887072880114630  0.6110085429483101  0.4343808331403394
  0.8886992535868953  0.1109544020591475  0.4356115582564468
  0.8887167050800767  0.6109521606085581  0.4360268687456589
  0.3886500626165376  0.2774558404666753  0.4374119573643761
  0.3887250714316253  0.7776482162037592  0.4341548590810251
  0.8887112515013450  0.2776193202068164  0.4360975972564336
  0.8887144762417056  0.7776263718592598  0.4354120232866278
  0.3885572116221024  0.4442703857265793  0.4362418537383561
  0.3887255100935341  0.9442825956365576  0.4352454423351838
  0.8887269771953811  0.4442827005673131  0.4363152435875951
  0.8887160388223313  0.9442953712408063  0.4352433671056838
  0.1119862690994561  0.0560065344041149  0.5650076085649091
  0.1117941401009297  0.5565532878339803  0.5626395805218007
  0.6124037234101382  0.0568928012595177  0.5619229997651982
  0.6093850589550449  0.5553177363804713  0.5660310710618436
  0.1136467313082244  0.2237911855310042  0.5670788588760350
  0.1106987974548906  0.7225627482984338  0.5623561698386687
  0.6122106817266268  0.2221838835484466  0.5673235066237815
  0.6124553808914655  0.7255810914373797  0.5593343918815064
  0.1137994023307006  0.3904090479417521  0.5642376685484112
  0.1107430516770788  0.8888164215043080  0.5628854958232598
  0.6117111115908825  0.3874456949181577  0.5746979075018724
  0.6124611471927385  0.8913464278322125  0.5590437882945642
  0.2778599055948862  0.0550326445131852  0.5661499057493072
  0.2792066079246117  0.5577037357679133  0.5613447901782772
  0.7796559160341531  0.0573143425073461  0.5618551185861163
  0.7757587000697291  0.5551483057690034  0.5665598689658016
  0.2818279601897453  0.3911257761979520  0.5706761585022276
  0.2776893345065167  0.8892939033504130  0.5618565921154369
  0.7785548658680247  0.3892837793868393  0.5662355620697593
  0.7791623202120547  0.8906831318479967  0.5609606071432479
  0.4449462383440178  0.0556509551196500  0.5637812468448323
  0.4453662180417451  0.5655302904487448  0.5581517424465511
  0.9462487924458495  0.0570348241756991  0.5633571445787803
  0.9440194434836116  0.5559058596550700  0.5641695177823443
  0.4448154957737369  0.2193905917309915  0.5735193746834234
  0.4449988631989609  0.7265266996665847  0.5578002724302156
  0.9466848444711530  0.2237375761748225  0.5638814161411587
  0.9433664343435199  0.7219979220405061  0.5632279640078762
  0.4435678799639781  0.3784269269981969  0.5918122380552765
  0.4450224616895979  0.8908806125003119  0.5599634353437255
  0.9460439207166847  0.3899471395663354  0.5638051677401418
  0.9443273927831859  0.8890656983727873  0.5625145026461638
  0.2790554857984577  0.2217919563887427  0.5729145176948521
  0.2778438896157349  0.7235745988080501  0.5601618620149400
  0.7795085677235859  0.2233704038158100  0.5637880811151390
  0.7761694051443072  0.7217506705691422  0.5631785159985611
  0.4612450645795416  0.4557953402257133  0.5334356673624762

             NaN             NaN             NaN
             NaN             NaN             NaN
             NaN             NaN             NaN
             NaN             NaN             NaN
             NaN             NaN             NaN
             NaN             NaN             NaN
             NaN             NaN             NaN
             NaN             NaN             NaN
             NaN             NaN             NaN
             NaN             NaN             NaN
             NaN             NaN             NaN
             NaN             NaN             NaN
             NaN             NaN             NaN
             NaN             NaN             NaN
             NaN             NaN             NaN
             NaN             NaN             NaN
             NaN             NaN             NaN
             NaN             NaN             NaN
             NaN             NaN             NaN
             NaN             NaN             NaN
             NaN             NaN             NaN
             NaN             NaN             NaN
             NaN             NaN             NaN
             NaN             NaN             NaN
             NaN             NaN             NaN
             NaN             NaN             NaN
             NaN             NaN             NaN
             NaN             NaN             NaN
             NaN             NaN             NaN
             NaN             NaN             NaN
             NaN             NaN             NaN
             NaN             NaN             NaN
             NaN             NaN             NaN
             NaN             NaN             NaN
             NaN             NaN             NaN
             NaN             NaN             NaN
             NaN             NaN             NaN
             NaN             NaN             NaN
             NaN             NaN             NaN
             NaN             NaN             NaN
             NaN             NaN             NaN
             NaN             NaN             NaN
             NaN             NaN             NaN
             NaN             NaN             NaN
             NaN             NaN             NaN
             NaN             NaN             NaN
             NaN             NaN             NaN
             NaN             NaN             NaN
             NaN             NaN             NaN
             NaN             NaN             NaN
             NaN             NaN             NaN
             NaN             NaN             NaN
             NaN             NaN             NaN
             NaN             NaN             NaN
             NaN             NaN             NaN
             NaN             NaN             NaN
             NaN             NaN             NaN
             NaN             NaN             NaN
             NaN             NaN             NaN
             NaN             NaN             NaN
             NaN             NaN             NaN
             NaN             NaN             NaN
             NaN             NaN             NaN
             NaN             NaN             NaN
             NaN             NaN             NaN
             NaN             NaN             NaN
             NaN             NaN             NaN
             NaN             NaN             NaN
             NaN             NaN             NaN
             NaN             NaN             NaN
             NaN             NaN             NaN
             NaN             NaN             NaN
             NaN             NaN             NaN
             NaN             NaN             NaN
             NaN             NaN             NaN
             NaN             NaN             NaN
             NaN             NaN             NaN
             NaN             NaN             NaN
             NaN             NaN             NaN
             NaN             NaN             NaN
             NaN             NaN             NaN
             NaN             NaN             NaN
             NaN             NaN             NaN
             NaN             NaN             NaN
             NaN             NaN             NaN
             NaN             NaN             NaN
             NaN             NaN             NaN
             NaN             NaN             NaN
             NaN             NaN             NaN
             NaN             NaN             NaN
             NaN             NaN             NaN
             NaN             NaN             NaN
             NaN             NaN             NaN
             NaN             NaN             NaN
             NaN             NaN             NaN
             NaN             NaN             NaN
             NaN             NaN             NaN
             NaN             NaN             NaN
             NaN             NaN             NaN
             NaN             NaN             NaN
             NaN             NaN             NaN
             NaN             NaN             NaN
             NaN             NaN             NaN
             NaN             NaN             NaN
             NaN             NaN             NaN
             NaN             NaN             NaN
             NaN             NaN             NaN
             NaN             NaN             NaN
             NaN             NaN             NaN
             NaN             NaN             NaN
             NaN             NaN             NaN
             NaN             NaN             NaN
             NaN             NaN             NaN
             NaN             NaN             NaN
             NaN             NaN             NaN
             NaN             NaN             NaN
             NaN             NaN             NaN
             NaN             NaN             NaN
             NaN             NaN             NaN
             NaN             NaN             NaN
             NaN             NaN             NaN
             NaN             NaN             NaN
             NaN             NaN             NaN
             NaN             NaN             NaN
             NaN             NaN             NaN
             NaN             NaN             NaN
             NaN             NaN             NaN
             NaN             NaN             NaN
             NaN             NaN             NaN
             NaN             NaN             NaN
             NaN             NaN             NaN
             NaN             NaN             NaN
             NaN             NaN             NaN
             NaN             NaN             NaN
             NaN             NaN             NaN
             NaN             NaN             NaN
             NaN             NaN             NaN
             NaN             NaN             NaN
             NaN             NaN             NaN
             NaN             NaN             NaN
             NaN             NaN             NaN
             NaN             NaN             NaN
             NaN             NaN             NaN
             NaN             NaN             NaN
