C    Li
   1.0000000000000000     
  14.8037481308000007   0.0000000000000000   0.0000000000000000
  -7.4018740654000004  12.8204219525000003   0.0000000000000000
   0.0000000000000000   0.0000000000000000  27.8030738831000015
C    Li
143  1  
Direct
  0.9998345026132540  0.9998461867942300  0.4357599802983570  
  0.9998381008196090  0.4998586012182000  0.4359249424189710  
  0.4998539795601150  0.9998636442807221  0.4352383322104530  
  0.4999089045920470  0.4999510535429080  0.4360840884114050  
  0.9998346220762360  0.1665228563388010  0.4361015171145650  
  0.9998382032213300  0.6665243793070990  0.4356608817793200  
  0.4998512670447040  0.1665011425411790  0.4368172607694520  
  0.4998774268554700  0.6665663057181060  0.4341009054417740  
  0.9998350646173010  0.3331965362486930  0.4361053051208970  
  0.9998321210038130  0.8331839732677790  0.4355048580381150  
  0.4998696887386910  0.3331595916585430  0.4374239834854660  
  0.4998571708048520  0.8332130683274031  0.4340454474475950  
  0.1664977161642010  0.9998402294813220  0.4361547430035630  
  0.1664899590225630  0.4998711846297250  0.4354362193298230  
  0.6665236231416000  0.9998792300961410  0.4347674666713320  
  0.6665942419109780  0.4999085515702570  0.4366774062335710  
  0.1664709237209720  0.1664878963838210  0.4367600102323910  
  0.1665045366206570  0.6665281528601530  0.4350993300370550  
  0.6665192009777100  0.1665277561881450  0.4360752045007530  
  0.6665306151288560  0.6665658034340320  0.4350718717784190  
  0.1664793862068020  0.3331868580916440  0.4363438726404140  
  0.1665063680707280  0.8331856599478230  0.4353742358464670  
  0.6665394317051681  0.3331929264904900  0.4370483105578200  
  0.6665350134858410  0.8332188243986069  0.4341906348237070  
  0.3331727981993640  0.9998388638931320  0.4359460854835150  
  0.3331210975728850  0.4999063187238870  0.4352889520062180  
  0.8331841084565350  0.9998693694136950  0.4350966222669400  
  0.8331944137749761  0.4998701014330680  0.4364580681694150  
  0.3331499013029670  0.1664603769029260  0.4371453963134610  
  0.3331780458310400  0.6665350129956020  0.4343227863926630  
  0.8331802159298290  0.1665312780467330  0.4357343812813210  
  0.8331745180451410  0.6665298190764450  0.4357652358256420  
  0.3331083988579730  0.3331368868070470  0.4370101763726520  
  0.3331839512259550  0.8331999348256640  0.4347281883555710  
  0.8331873259732920  0.3331998299762520  0.4363715149467990  
  0.8331841868349630  0.8332053376319170  0.4350257416389740  
  0.0006464676496236  0.0003747999522119  0.5631703528913550  
  0.0005527816416162  0.5008032004948429  0.5637072297536460  
  0.5012155780180690  0.0012254887134944  0.5614518576064210  
  0.0026179100574097  0.1684183376349470  0.5646285713856400  
  0.9993997824688921  0.6667842914895989  0.5633023037737960  
  0.5010144369420150  0.1651344043088300  0.5668842946240180  
  0.5016447653519690  0.6737413606299540  0.5550559208888400  
  0.0026955013682439  0.3348549956824910  0.5639059031683900  
  0.9994328925058160  0.8330267701167740  0.5625181176181470  
  0.5001629229422310  0.3272536745321940  0.5817713482667560  
  0.5013988784263790  0.8372179652636830  0.5587969548850180  
  0.1666099635144250  0.9994204497474610  0.5640368886203430  
  0.1681439565963100  0.5014937491374950  0.5630812612830380  
  0.6685313021070480  0.0020572177595213  0.5607232161007260  
  0.6631309082273940  0.4990830757010800  0.5697906815708790  
  0.1677214195178820  0.1664887181568840  0.5675622865881920  
  0.1667764717537070  0.6674985771127450  0.5619523380359300  
  0.6683378614212639  0.1677234544190400  0.5638649840667970  
  0.6644242892051150  0.6661858475598380  0.5624735391099730  
  0.1712178753345480  0.3355529300456510  0.5670610864667510  
  0.1663627296889350  0.8332986860682250  0.5621679209108520  
  0.6672403537467910  0.3333532320525090  0.5690841345526250  
  0.6682709497270880  0.8358343784010170  0.5590273313978780  
  0.3335599872187060  0.9996371250361730  0.5632640958766330  
  0.3370050547017410  0.5035134692995770  0.5617448066680170  
  0.8352329888322740  0.0017949774008912  0.5619048325520590  
  0.8326749455216530  0.5001729327780779  0.5658649522983340  
  0.3334894947589790  0.1644418641425030  0.5710265872937650  
  0.3340553030570560  0.6690256792001040  0.5589351579657350  
  0.8355747710132559  0.1683207210253030  0.5630306697773050  
  0.8317951229640100  0.6662152460616260  0.5639643961277230  
  0.3354387622431430  0.3313706527095160  0.5795621712367520  
  0.3336707555548340  0.8344307545643660  0.5605291108967950  
  0.8348098889838130  0.3343606248902520  0.5643509318545979  
  0.8332644825922980  0.8337930770399280  0.5615651859650940  
  0.0553773543697247  0.1109569304201870  0.4362168591534830  
  0.0553913278760589  0.6109678659066941  0.4355662796821990  
  0.5554124678584960  0.1109694085132420  0.4360570249884150  
  0.5554694931553210  0.6110943428318830  0.4349181385185900  
  0.0553830549951755  0.2776373385016560  0.4362308819342930  
  0.0553883654517051  0.7776285116608290  0.4354691406314330  
  0.5554314707643540  0.2776097060598630  0.4372758401986160  
  0.5554193014860620  0.7776600502271760  0.4338836035371120  
  0.0553836319138412  0.4443052579729430  0.4358670332243550  
  0.0553861387095864  0.9442951755088270  0.4357605696201650  
  0.5554689868440620  0.4443260000100580  0.4369107372580880  
  0.5554087716116380  0.9443222064031080  0.4345486624575160  
  0.2220414733614930  0.1109407039014700  0.4367569438421980  
  0.2220589409568350  0.6109716385651400  0.4348907422188620  
  0.7220682221711460  0.1109763501542670  0.4354726675060620  
  0.7220706825153580  0.6109882691240570  0.4358809745880810  
  0.2219840391692570  0.2775955938596300  0.4368296997623770  
  0.2220628229269370  0.7776399110648100  0.4350001289790270  
  0.7220749301688580  0.2776406887068530  0.4365742105844600  
  0.7220795654123010  0.7776650250764450  0.4346096099345540  
  0.2220416466539850  0.4443169872627810  0.4356820953369580  
  0.2220616848541180  0.9442964985159960  0.4357967522596410  
  0.7220936941595820  0.4443222235203590  0.4368765459335930  
  0.7220773063017770  0.9443197113683300  0.4345452370784390  
  0.3887310332455410  0.1109434419429220  0.4367126178554910  
  0.3887390383602210  0.6109907468569560  0.4343559528505170  
  0.8887244325956301  0.1109750302579680  0.4356030561179550  
  0.8887232001716820  0.6109720923304710  0.4360130012578760  
  0.3887142439683090  0.2775783590559870  0.4373924291561620  
  0.3887434233865860  0.7776559430382690  0.4342094676762400  
  0.8887329962693680  0.2776433934151680  0.4361004110082620  
  0.8887289258394230  0.7776405667007890  0.4353698468031690  
  0.3886737575873480  0.4443171448735580  0.4361693484489070  
  0.3887406845776340  0.9443087528437890  0.4352329204830240  
  0.8887321312084850  0.4443054204083550  0.4363198494547900  
  0.8887338600415690  0.9443103296426900  0.4352062210682990  
  0.1116788769762710  0.0554597440760389  0.5646352254843380  
  0.1117919195259200  0.5565011474132930  0.5628964186532810  
  0.6125083224224570  0.0569171233354879  0.5618343791537870  
  0.6110033659147550  0.5568308944354921  0.5662195950959020  
  0.1138038708333800  0.2236772086713120  0.5670040599012860  
  0.1106793601033120  0.7224107721346020  0.5624058734190100  
  0.6122161091816740  0.2220096526758870  0.5668825137178640  
  0.6128141349469159  0.7260762434313290  0.5580502536286220  
  0.1141079272823400  0.3904169137968340  0.5642617443495150  
  0.1106454071297800  0.8884969955765030  0.5626497059848110  
  0.6114099223274110  0.3872248060698030  0.5745430718617190  
  0.6126260299371540  0.8916330970706310  0.5590430079386830  
  0.2776065785189350  0.0543049398159781  0.5656418326467760  
  0.2790782183484670  0.5579031494882680  0.5611242546309750  
  0.7798142119326950  0.0574366361672674  0.5618704678200360  
  0.7759598663300270  0.5551580117910010  0.5664316284241480  
  0.2826609250421870  0.3909779111299230  0.5701741744331340  
  0.2775908441064270  0.8889842574277650  0.5617348711272500  
  0.7785718696977210  0.3892749019303780  0.5660620761886510  
  0.7794028646521550  0.8908823856342920  0.5608739864643790  
  0.4448766786280270  0.0551201190714039  0.5632755515751880  
  0.4442413820616120  0.5680406971303780  0.5528522547195250  
  0.9463683872300730  0.0570689532531858  0.5633026383852520  
  0.9440847256154110  0.5558301221014260  0.5641829009899840  
  0.4445639476709500  0.2178862817434110  0.5729424290650660  
  0.4450898007764150  0.7273964423543970  0.5572529174426110  
  0.9468505897726800  0.2237841642809140  0.5639006267619850  
  0.9434655351395800  0.7219247859568581  0.5631018071399370  
  0.4409230922229950  0.3717614077546610  0.5939046063114830  
  0.4450414505653840  0.8909609252545390  0.5601917391215990  
  0.9461781917450048  0.3899319202400450  0.5638509982051050  
  0.9444484554909490  0.8890589932806140  0.5623236594066940  
  0.2781246347216780  0.2201617177052380  0.5725399452576670  
  0.2778079368466420  0.7235828451454790  0.5603749282543899  
  0.7796321901466640  0.2234102772669790  0.5636871940653450  
  0.7767955304238040  0.7222565355940700  0.5626227099557680  
  0.4586222930354540  0.4651945716265760  0.5530502635895970  
