C    Li                                 
   1.0000000000000000     
     7.4018740654000004    0.0000000000000000    0.0000000000000000
    -3.7009378863000002    6.4102104834000002    0.0000000000000000
     0.0000000000000000    0.0000000000000000   27.8030738831000015
   C    Li
    36     1
Direct
 -0.0000962492212951  1.0000963012827766  0.4301836183512007
  0.9997105603677741  0.3333894854741187  0.4299529869523847
  0.0000130571192303  0.6669452743711435  0.4301838296768279
  0.3330547288906437  0.9999869727806567  0.4301838240219861
  0.3327460046924429  0.3328243575828213  0.4291985764614070
  0.3326850322555945  0.6673150269831415  0.4291782840409286
  0.6666105387372363  0.0002894789155900  0.4299529948474396
  0.6667169143240870  0.3332831005555252  0.4299062672486645
  0.6671757284094829  0.6672540680962434  0.4291985930158470
  0.0003329169689487  0.9996670611668843  0.5697860792988012
  0.9998591910574560  0.3327144927675364  0.5696482918495583
  0.0004756798827191  0.6664063697115608  0.5698425644399325
  0.3335936465200936  0.9995243237333538  0.5698425600685469
  0.3332669994306364  0.3322057783533302  0.5707685235451443
  0.3334358924605799  0.6665641238334410  0.5698837391153437
  0.6672855356434109  0.0001408160284383  0.5696483061500459
  0.6675654042173128  0.3324345898030162  0.5703576132522369
  0.6677941789003572  0.6667329473936192  0.5707685422418097
  0.1103862874058729  0.2220192770823013  0.4298793915555629
  0.1106098267682195  0.5556202333167004  0.4298366875607026
  0.1109826313378287  0.8890173755974776  0.4301981411580659
  0.4444215765773613  0.2219970537449075  0.4298304761452307
  0.4440397559664994  0.5559603447350210  0.4280485346904238
  0.4443797853841446  0.8893902164350789  0.4298366914592464
  0.7777147314233892  0.2222852970464493  0.4301732857320140
  0.7780029817668995  0.5555784383778771  0.4298304854830142
  0.7779807803559715  0.8896137753174544  0.4298794074202912
  0.2221602978240984  0.1099299392883840  0.5700088962895028
  0.2220954578999281  0.4438918254885383  0.5700614963675767
  0.2223611838319711  0.7776388319910277  0.5695959883985353
  0.5559199274423797  0.1105989139926945  0.5698920185699405
  0.5564553510870235  0.4435445894247554  0.5713615847409501
  0.5561081866636879  0.7779045399185606  0.5700615130532110
  0.8891847699348454  0.1108152506009772  0.5697085753303467
  0.8894010875845638  0.4440800950463812  0.5698920158128092
  0.8900700287126703  0.7778396777030540  0.5700089137411101
  0.4724903102008112  0.5275096957701748  0.5034101614422674

             NaN             NaN             NaN
             NaN             NaN             NaN
             NaN             NaN             NaN
             NaN             NaN             NaN
             NaN             NaN             NaN
             NaN             NaN             NaN
             NaN             NaN             NaN
             NaN             NaN             NaN
             NaN             NaN             NaN
             NaN             NaN             NaN
             NaN             NaN             NaN
             NaN             NaN             NaN
             NaN             NaN             NaN
             NaN             NaN             NaN
             NaN             NaN             NaN
             NaN             NaN             NaN
             NaN             NaN             NaN
             NaN             NaN             NaN
             NaN             NaN             NaN
             NaN             NaN             NaN
             NaN             NaN             NaN
             NaN             NaN             NaN
             NaN             NaN             NaN
             NaN             NaN             NaN
             NaN             NaN             NaN
             NaN             NaN             NaN
             NaN             NaN             NaN
             NaN             NaN             NaN
             NaN             NaN             NaN
             NaN             NaN             NaN
             NaN             NaN             NaN
             NaN             NaN             NaN
             NaN             NaN             NaN
             NaN             NaN             NaN
             NaN             NaN             NaN
             NaN             NaN             NaN
             NaN             NaN             NaN
