C    Li
   1.0000000000000000     
   7.4018740654000004   0.0000000000000000   0.0000000000000000
  -3.7009378863000002   6.4102104834000002   0.0000000000000000
   0.0000000000000000   0.0000000000000000  27.8030738831000015
C    Li
36  1  
Direct
  0.0000366594843442  0.9999633405156561  0.4301410006170770  
  0.9998383771492459  0.3332412567326980  0.4299642473424470  
  0.0002327671362252  0.6668493344147560  0.4301364038416370  
  0.3331506954392440  0.9997672328306000  0.4301364038416370  
  0.3328598978143800  0.3326600190377530  0.4293855934508460  
  0.3329479801688960  0.6670520496519290  0.4295126432598050  
  0.6667587729503810  0.0001616227951686  0.4299642473424470  
  0.6668349283886170  0.3331651012388760  0.4298326007580540  
  0.6673400107472600  0.6671401319840340  0.4293855934508460  
  0.0000078258100515  0.9999921741899480  0.5698143086325440  
  0.9994195015394350  0.3330210061139600  0.5698280991342199  
  0.0000739196582060  0.6667374729781270  0.5698732262483470  
  0.3332625568758730  0.9999260803086190  0.5698732262483470  
  0.3328657320876400  0.3326891873726790  0.5704171690828160  
  0.3330340921409060  0.6669659376799190  0.5702681665941400  
  0.6669790235691200  0.0005804984049789  0.5698280991342199  
  0.6670465951850419  0.3329534344424520  0.5700360192387000  
  0.6673108424123270  0.6671342977107740  0.5704171690828160  
  0.1105761579248680  0.2218920159403340  0.4299134152887940  
  0.1107719644782960  0.5554605907718581  0.4299200971441480  
  0.1111190781914790  0.8888809945764110  0.4301590867738770  
  0.4444642325625170  0.2218038250163160  0.4297886395386930  
  0.4443533870293880  0.5556465830975550  0.4286103467639180  
  0.4445394017616740  0.8892280803100970  0.4299200971441480  
  0.7778717215094491  0.2221282786264850  0.4301122398507930  
  0.7781961750270200  0.5555357600500060  0.4297886395386930  
  0.7781079841165950  0.8894238868210210  0.4299134152887940  
  0.2218616892905910  0.1104318167029990  0.5699056540126080  
  0.2215971176724030  0.4442082392438280  0.5702799820361190  
  0.2219404213262170  0.7780595824137890  0.5698393791399140  
  0.5555662984686049  0.1110192329854200  0.5698856084296080  
  0.5558287634960311  0.4441712885675950  0.5706727463764170  
  0.5557918129157710  0.7784029084659210  0.5702799820361190  
  0.8888650620188370  0.1111349380896560  0.5698059453692040  
  0.8889807669939030  0.4444337535890740  0.5698856084296080  
  0.8895681833723260  0.7781383368417920  0.5699056540126080  
  0.4722222312917030  0.5277777537510100  0.5025987056936290  
