C    H    Li                            
   1.0000000000000000     
    37.0938796996999969    0.0000000000000000    0.0000000000000000
     0.0000000000000000    7.3546423911999996    0.0000000000000000
     0.0000000000000000    0.0000000000000000   27.8030738831000015
   C    H    Li
   108    12     1
Direct
  0.4993669321767860  0.8333860937093215  0.4366739995040121
  0.7302088631442725  0.8332725813744084  0.5630895222459558
  0.3838589291949542  0.8333892104132141  0.4362263345477582
  0.6148766494370324  0.8333905370298578  0.4370306261424334
  0.4416139513270710  0.6667250630029952  0.4364053484379511
  0.6726723163757384  0.6667198507744337  0.4367903524525542
  0.3261172281398548  0.6667759483780820  0.4362705043880092
  0.5571171468654409  0.6667274861529913  0.4369309937022684
  0.4993670494355193  0.1667193440918482  0.4366719251147386
  0.7302101445401455  0.1666035048421972  0.5630894819317065
  0.3838475057682322  0.1667334578961253  0.4362210565943422
  0.6148766825940936  0.1667236232948668  0.4370303809964248
  0.4416139011607663  0.0000527706298664  0.4364056839839718
  0.6726723217812883  0.0000523944254783  0.4367903602105841
  0.3261162633820183  1.0000083821278829  0.4362730330335128
  0.5571171626505934  0.0000560316827117  0.4369310173378103
  0.4993670305211693  0.5000524013231762  0.4366718481485291
  0.7302101633963990  0.4999415477446059  0.5630894316395607
  0.3838477316436181  0.5000439343560517  0.4362208546472037
  0.6148766705639584  0.5000575847328664  0.4370303691002072
  0.4416132256969019  0.3333887777887597  0.4364037352755663
  0.6726721139800766  0.3333862909920374  0.4367906947867416
  0.3261023843017213  0.3333922530401201  0.4362936314193346
  0.5571170145433351  0.3333917630814423  0.4369302057283009
  0.2688644780251187  0.8333958544464505  0.4361517340798538
  0.4996090073780929  0.8332759137047874  0.5631820949887962
  0.3839908336090483  0.8332641747493930  0.5625582352100410
  0.6151377539767954  0.8332662383168313  0.5637141566449970
  0.4418067674843215  0.6665855497886811  0.5628624532943712
  0.6728604399269360  0.6666027651802289  0.5636803756087432
  0.3261079396953659  0.6665308093703275  0.5624763800309587
  0.5573821434349471  0.6666055254278831  0.5634969390425764
  0.2688572094946592  0.1665578967753961  0.4360689351339833
  0.4996094773872997  0.1666032404461700  0.5631713496267519
  0.3839571542122637  0.1666431812331977  0.5624701150423668
  0.6151365342205320  0.1665972291399068  0.5637131845822762
  0.4418066026961689  0.9999623657924257  0.5628620376060550
  0.6728604089745847  0.9999364044101191  0.5636805786163360
  0.3261081143191232  0.9999832285394177  0.5624754940223585
  0.5573820573947769  0.9999324155735747  0.5634974757621426
  0.2688587627133264  0.5002414251886699  0.4360632743759481
  0.4996095237034081  0.4999490900212640  0.5631710227279009
  0.3839576636989664  0.4998857996935427  0.5624714965917798
  0.6151365652282789  0.4999352413205834  0.5637129173340326
  0.4418096093878311  0.3332747015842359  0.5628292682640867
  0.6728599621559290  0.3332695970138032  0.5636797425261468
  0.3259736687594456  0.3332584350060723  0.5622015268505417
  0.5573814059184263  0.3332698364722837  0.5634933158578924
  0.4608650011040830  0.8333896116477174  0.4364829401314546
  0.6918111931913057  0.8333851810499056  0.4366297519626754
  0.3452523921650830  0.8333919112019977  0.4362225652768737
  0.5763615272738046  0.8333943099933033  0.4369772945655319
  0.4030840369720216  0.6667242081930188  0.4362484194381034
  0.6340989216382529  0.6667225719913841  0.4369830289508374
  0.2871748014686877  0.6672132986926239  0.4362410595884914
  0.5186184326020856  0.6667224622948965  0.4367525323423189
  0.4608642250264023  0.1667231738291926  0.4364800489376519
  0.6918108862273347  0.1667183448039398  0.4366303622454842
  0.3452316503958960  0.1667183926830574  0.4362133576319818
  0.5763610493620498  0.1667274275231788  0.4369766597955277
  0.4030838788702567  0.0000529286096215  0.4362487303853546
  0.6340989336909726  0.0000541138097057  0.4369830383058517
  0.2871729000381988  0.9995816434434561  0.4362466392692619
  0.5186184721941069  0.0000497364592679  0.4367525667576063
  0.4608642739269441  0.5000547786518933  0.4364798767380389
  0.6918108844896925  0.5000517870919959  0.4366303563092922
  0.3452320055623849  0.5000629842671968  0.4362123990141917
  0.5763610368138586  0.5000612754168868  0.4369766387089756
  0.4030782527734809  0.3333879786037886  0.4362469053573226
  0.6340986085206123  0.3333882780295812  0.4369828229634093
  0.2870969141529957  0.3333998683069629  0.4361120844727194
  0.5186175483921267  0.3333860109018856  0.4367510246920336
  0.4803401161261225  0.9999562536328513  0.5630796096501707
  0.7117529619689290  0.9999427938838553  0.5633880997449722
  0.3647435880179715  1.0000060952263814  0.5624202828043762
  0.5959080699858303  0.9999322975136413  0.5636739649111683
  0.4225440113461468  0.8332734450382555  0.5627802541302700
  0.6537219925783634  0.8332663434087713  0.5637455877920955
  0.3070517524647846  0.8332553874264153  0.5629961547374110
  0.5381286025301737  0.8332689799495950  0.5634135994403118
  0.4803417522943735  0.3332765817137305  0.5630666450424748
  0.7117544685028776  0.3332735345518197  0.5633882023989975
  0.3646416293088307  0.3332632683984629  0.5623318144919377
  0.5959087252546336  0.3332642479926922  0.5636727315185669
  0.4225286022365340  0.1666248212426770  0.5627255395632533
  0.6537204852020361  0.1665942081760105  0.5637441285402998
  0.3068431972202209  0.1662957086598415  0.5623555343591293
  0.5381288669176845  0.1665928060720027  0.5634078675276131
  0.4803402093809678  0.6665968636160351  0.5630796191589187
  0.7117529855705917  0.6666041859793277  0.5633880009034323
  0.3647438512811488  0.6665182665503284  0.5624217922494376
  0.5959081319677734  0.6665959597688572  0.5636736975307950
  0.4225288185933326  0.4999214995469473  0.5627262349775832
  0.6537205032803448  0.4999391480986595  0.5637440551002875
  0.3068425552736950  0.5002216577009688  0.5623563827407254
  0.5381289367688009  0.4999474526540758  0.5634067960415192
  0.2682287368094893  0.8332625278540409  0.5644716405299282
  0.2678690472175412  0.5012975357345941  0.5639104625839187
  0.2678693383883576  0.1652359201804844  0.5639125035329609
  0.7306946100782821  0.8333789661644704  0.4363033198453826
  0.7306945898030286  0.5000463976489865  0.4363046449200107
  0.7306945990011032  0.1667117809890711  0.4363046480112900
  0.2498003659175717  0.6672200894646605  0.5652900703395137
  0.2491560789629261  0.3332666000777239  0.5642416578812613
  0.2498010639980726  0.9993121971975835  0.5652912856205466
  0.7491571482073096  0.0000451153054957  0.4361534538349726
  0.7491569341186957  0.3333783265766638  0.4361558946787963
  0.7491571470290883  0.6667116856201807  0.4361534505138264
  0.2393677139022497  0.8333914725964165  0.4364910668437242
  0.2392186455290846  0.5020853290027896  0.4332601317183302
  0.2392173190422847  0.1647192800422864  0.4332387819035501
  0.7596780187060101  0.8332788082554399  0.5624073821534104
  0.7596792031431285  0.4999499831597218  0.5624062304043319
  0.7596791821099576  0.1666073761280561  0.5624062149115419
  0.2202826481300737  0.6688936576437954  0.5675150395793823
  0.2209920028081512  0.3332745986414558  0.5772669374043849
  0.2202832832138404  0.9976359083397162  0.5675269512066686
  0.7786359924527100  0.0000479249463157  0.4359171420290521
  0.7786358122490261  0.3333809425573382  0.4359194027405959
  0.7786359997750341  0.6667139041193095  0.4359171322978675
  0.2179311117673811  0.3329121371515654  0.5014778779669511

             NaN             NaN             NaN
             NaN             NaN             NaN
             NaN             NaN             NaN
             NaN             NaN             NaN
             NaN             NaN             NaN
             NaN             NaN             NaN
             NaN             NaN             NaN
             NaN             NaN             NaN
             NaN             NaN             NaN
             NaN             NaN             NaN
             NaN             NaN             NaN
             NaN             NaN             NaN
             NaN             NaN             NaN
             NaN             NaN             NaN
             NaN             NaN             NaN
             NaN             NaN             NaN
             NaN             NaN             NaN
             NaN             NaN             NaN
             NaN             NaN             NaN
             NaN             NaN             NaN
             NaN             NaN             NaN
             NaN             NaN             NaN
             NaN             NaN             NaN
             NaN             NaN             NaN
             NaN             NaN             NaN
             NaN             NaN             NaN
             NaN             NaN             NaN
             NaN             NaN             NaN
             NaN             NaN             NaN
             NaN             NaN             NaN
             NaN             NaN             NaN
             NaN             NaN             NaN
             NaN             NaN             NaN
             NaN             NaN             NaN
             NaN             NaN             NaN
             NaN             NaN             NaN
             NaN             NaN             NaN
             NaN             NaN             NaN
             NaN             NaN             NaN
             NaN             NaN             NaN
             NaN             NaN             NaN
             NaN             NaN             NaN
             NaN             NaN             NaN
             NaN             NaN             NaN
             NaN             NaN             NaN
             NaN             NaN             NaN
             NaN             NaN             NaN
             NaN             NaN             NaN
             NaN             NaN             NaN
             NaN             NaN             NaN
             NaN             NaN             NaN
             NaN             NaN             NaN
             NaN             NaN             NaN
             NaN             NaN             NaN
             NaN             NaN             NaN
             NaN             NaN             NaN
             NaN             NaN             NaN
             NaN             NaN             NaN
             NaN             NaN             NaN
             NaN             NaN             NaN
             NaN             NaN             NaN
             NaN             NaN             NaN
             NaN             NaN             NaN
             NaN             NaN             NaN
             NaN             NaN             NaN
             NaN             NaN             NaN
             NaN             NaN             NaN
             NaN             NaN             NaN
             NaN             NaN             NaN
             NaN             NaN             NaN
             NaN             NaN             NaN
             NaN             NaN             NaN
             NaN             NaN             NaN
             NaN             NaN             NaN
             NaN             NaN             NaN
             NaN             NaN             NaN
             NaN             NaN             NaN
             NaN             NaN             NaN
             NaN             NaN             NaN
             NaN             NaN             NaN
             NaN             NaN             NaN
             NaN             NaN             NaN
             NaN             NaN             NaN
             NaN             NaN             NaN
             NaN             NaN             NaN
             NaN             NaN             NaN
             NaN             NaN             NaN
             NaN             NaN             NaN
             NaN             NaN             NaN
             NaN             NaN             NaN
             NaN             NaN             NaN
             NaN             NaN             NaN
             NaN             NaN             NaN
             NaN             NaN             NaN
             NaN             NaN             NaN
             NaN             NaN             NaN
             NaN             NaN             NaN
             NaN             NaN             NaN
             NaN             NaN             NaN
             NaN             NaN             NaN
             NaN             NaN             NaN
             NaN             NaN             NaN
             NaN             NaN             NaN
             NaN             NaN             NaN
             NaN             NaN             NaN
             NaN             NaN             NaN
             NaN             NaN             NaN
             NaN             NaN             NaN
             NaN             NaN             NaN
             NaN             NaN             NaN
             NaN             NaN             NaN
             NaN             NaN             NaN
             NaN             NaN             NaN
             NaN             NaN             NaN
             NaN             NaN             NaN
             NaN             NaN             NaN
             NaN             NaN             NaN
             NaN             NaN             NaN
             NaN             NaN             NaN
             NaN             NaN             NaN
             NaN             NaN             NaN
