C    H    Li                            
   1.0000000000000000     
    37.2234382628999967    0.0000000000000000    0.0000000000000000
     0.0000000000000000    8.5469398498999993    0.0000000000000000
     0.0000000000000000    0.0000000000000000   27.8030738831000015
   C    H    Li
   104    16     1
Direct
  0.4666117839189117  0.0045678559601223  0.4362549258794128
  0.4666121343377451  0.5045549240239362  0.4363140619985659
  0.4335097675510919  0.2545207950277826  0.4364659067004724
  0.4335039922537874  0.7545032903329356  0.4362581117175161
  0.3339807047454828  0.0040519433792278  0.4361089740614201
  0.3340096136317248  0.5044206788822370  0.4356791860074558
  0.3016467227485317  0.2579131130075176  0.4334800665959316
  0.3015651108957393  0.7579794452078988  0.4369665657912983
  0.4003843774707472  0.0049653350402085  0.4363221951961271
  0.4003853361038867  0.5049537192869683  0.4364929888477544
  0.3670979838299761  0.2545525345902769  0.4362800020718490
  0.3671035096724513  0.7545870333788787  0.4362443182665757
  0.4666485559205518  0.9955476482578242  0.5636994926924117
  0.4666517140854243  0.4955407476901361  0.5637390456027644
  0.4335548175283871  0.2456030628420323  0.5635991273212225
  0.4335452683963509  0.7456183280283479  0.5636925372284942
  0.3340244063633274  0.9958644568835281  0.5639744083303161
  0.3340472696053598  0.4959874312876463  0.5643985972065495
  0.3017366896459777  0.2419383095495846  0.5662709594782419
  0.3016121135802232  0.7422415664576231  0.5635508865220797
  0.4004217151567106  0.9951756907145890  0.5635322223634829
  0.4004346720266354  0.4951584037632082  0.5637283680868747
  0.3671573279432507  0.2455763449267609  0.5638788574477200
  0.3671431471961220  0.7455589026837373  0.5637092798966733
  0.4666071409753352  0.1713811779770180  0.4363121854363715
  0.4666040697598705  0.6713701382282954  0.4362443796106579
  0.4335052694595660  0.4214499415033876  0.4364541923754484
  0.4335000029340612  0.9214701084557013  0.4362543276171948
  0.3340209367885414  0.1717283582543265  0.4355809814237447
  0.3339918167434584  0.6720883636171403  0.4361657303296860
  0.3016075022460453  0.4183430033410445  0.4335578024478351
  0.3015506479987115  0.9181467195217033  0.4368781021813243
  0.4003821798379110  0.1711172968200937  0.4364743983980977
  0.4003801561341478  0.6711001609701818  0.4363023046812055
  0.3670879464081034  0.4215555829574527  0.4362941422016381
  0.3670971126740544  0.9215133657299304  0.4362291752154580
  0.3015911569305140  0.0816826965696896  0.5654439789757669
  0.3016398165296023  0.5820982681506072  0.5641616488935940
  0.4666526338947322  0.3287287706796463  0.5637113662857611
  0.4666471166803278  0.8287387157410455  0.5637394007472165
  0.3671253853410799  0.0785962686416293  0.5637194169447769
  0.3671457148295360  0.5786206921599202  0.5638867669071677
  0.3340873029725993  0.3283421790437316  0.5647703557152753
  0.3340325036521926  0.8281093158167526  0.5637077687276331
  0.4335442049927714  0.0786542959345178  0.5635976681291006
  0.4335490635461665  0.5786542523603051  0.5637195041553162
  0.4004370087767071  0.3290367406801584  0.5636490224554146
  0.4004213166849630  0.8290282574368391  0.5636281847429890
  0.5329924181442224  0.9954720679895117  0.5638908153119621
  0.5329933011744658  0.4954722096969963  0.5638980969593895
  0.5660918656532324  0.7455140110402538  0.5639611682238918
  0.5660927205479378  0.2455140458519345  0.5639593268741575
  0.6655845877089828  0.9957536369395246  0.5638574965638350
  0.6655849942091661  0.4957530907974842  0.5638551251699409
  0.6979985384269801  0.7418974456404567  0.5635666474400891
  0.6979992873865100  0.2419007188703795  0.5635736501531431
  0.4998214859563207  0.7453054976771527  0.5638034683991388
  0.4998253133411928  0.2452999589516851  0.5637795585988042
  0.5992118944404075  0.9949882070378101  0.5639863948915228
  0.5992124263304015  0.4949886336284607  0.5639872561655181
  0.6324962196215894  0.7453526218424584  0.5639901023633771
  0.6324970460513515  0.2453545843586803  0.5639909697186122
  0.5329549579809869  0.0046219614589930  0.4361083648323799
  0.5329549273853171  0.5046177990120065  0.4361156875724244
  0.5660520299921044  0.7545746594048885  0.4360434362580214
  0.5660530426023703  0.2545673634077216  0.4360468659010354
  0.6655458717698303  0.0043173524307672  0.4361344637651139
  0.6655444815569570  0.5043054221942698  0.4361347918545256
  0.6979583275623960  0.7581880248054538  0.4364138852977284
  0.6979596879659479  0.2581470502729622  0.4364144612793060
  0.4997818005517832  0.7547867294344421  0.4361909010107551
  0.4997852350699833  0.2547952518992221  0.4362364164458292
  0.5991729292482043  0.0050881551211348  0.4360169293168786
  0.5991718649663896  0.5050830236795569  0.4360179249350116
  0.6324544410718572  0.7547267648117472  0.4360054771492666
  0.6324566725015280  0.2547075439964379  0.4360055150523414
  0.5329963156938944  0.8286892833119133  0.5638995470028736
  0.5329984931318138  0.3286862677239191  0.5638974986235554
  0.5660918892179911  0.5785212747530620  0.5639734436097548
  0.5660908398286422  0.0785193084355002  0.5639696207694483
  0.6655777184328068  0.8279200463471590  0.5638728904323640
  0.6655782856996152  0.3279189310693513  0.5638742718074711
  0.6980119262773435  0.5817305810183895  0.5636071564057148
  0.6980120893874427  0.0817266615579393  0.5636154804215059
  0.4998232701956249  0.5789294273647593  0.5638250301739011
  0.4998219735738383  0.0789290261073645  0.5637989844386772
  0.5992142174615603  0.8288815303173004  0.5640076827889677
  0.5992147581179612  0.3288807160314979  0.5640080602976449
  0.6325000656161984  0.5784232521678386  0.5639848740778279
  0.6325000383352748  0.0784211659212600  0.5639858277732777
  0.6979765423844202  0.9183217751303711  0.4363765662550854
  0.6979779512253343  0.4183630612898783  0.4363771917583430
  0.4997789039191740  0.9211733362900146  0.4361699152102487
  0.4997813839623092  0.4211712529179086  0.4362140752310986
  0.5329538768108439  0.6714025707396327  0.4361041040437172
  0.5329548092651744  0.1714049144780700  0.4361109194535671
  0.6324636039696124  0.9216381197421560  0.4360107829890189
  0.6324654990004395  0.4216582633785110  0.4360112807633276
  0.6655441822434572  0.6721460632323530  0.4361153487431527
  0.6655428877703021  0.1721576926503021  0.4361152151860045
  0.5660520612514389  0.9215646343567527  0.4360337958103051
  0.5660527178382827  0.4215719534897982  0.4360380993087377
  0.5991747595965616  0.6711975415148004  0.4359936201025034
  0.5991738155018147  0.1712011968805999  0.4359934985988980
  0.7237012838490930  0.9788451124117881  0.4367021577645719
  0.7236999429301961  0.4788392422429391  0.4367036414545881
  0.7237105733246632  0.8024931626760431  0.5631723644765396
  0.7237114661352819  0.3024904920196410  0.5631842292780193
  0.7236746379919284  0.6975734254333876  0.4368064696333697
  0.7236735267335801  0.1975798577533494  0.4368078902383480
  0.7237376712036789  0.0212262527817681  0.5632924588829878
  0.7237379507706422  0.5212279273081818  0.5632797726533219
  0.2758630307781459  0.0211434589537765  0.5666752048857518
  0.2757795424809697  0.5221655037625207  0.5645498038582241
  0.2760588453835678  0.1961921960523858  0.4302536169172114
  0.2758254422659811  0.6975821479390075  0.4380358481133953
  0.2760545595487344  0.3029308368911877  0.5697184789248051
  0.2758740817868259  0.8026490447017932  0.5629330905566724
  0.2757810917393256  0.9783905629885972  0.4378180357682043
  0.2759975147210314  0.4798374838183192  0.4305344489067124
  0.2317765210794230  0.3246577672661088  0.4984318827012174

             NaN             NaN             NaN
             NaN             NaN             NaN
             NaN             NaN             NaN
             NaN             NaN             NaN
             NaN             NaN             NaN
             NaN             NaN             NaN
             NaN             NaN             NaN
             NaN             NaN             NaN
             NaN             NaN             NaN
             NaN             NaN             NaN
             NaN             NaN             NaN
             NaN             NaN             NaN
             NaN             NaN             NaN
             NaN             NaN             NaN
             NaN             NaN             NaN
             NaN             NaN             NaN
             NaN             NaN             NaN
             NaN             NaN             NaN
             NaN             NaN             NaN
             NaN             NaN             NaN
             NaN             NaN             NaN
             NaN             NaN             NaN
             NaN             NaN             NaN
             NaN             NaN             NaN
             NaN             NaN             NaN
             NaN             NaN             NaN
             NaN             NaN             NaN
             NaN             NaN             NaN
             NaN             NaN             NaN
             NaN             NaN             NaN
             NaN             NaN             NaN
             NaN             NaN             NaN
             NaN             NaN             NaN
             NaN             NaN             NaN
             NaN             NaN             NaN
             NaN             NaN             NaN
             NaN             NaN             NaN
             NaN             NaN             NaN
             NaN             NaN             NaN
             NaN             NaN             NaN
             NaN             NaN             NaN
             NaN             NaN             NaN
             NaN             NaN             NaN
             NaN             NaN             NaN
             NaN             NaN             NaN
             NaN             NaN             NaN
             NaN             NaN             NaN
             NaN             NaN             NaN
             NaN             NaN             NaN
             NaN             NaN             NaN
             NaN             NaN             NaN
             NaN             NaN             NaN
             NaN             NaN             NaN
             NaN             NaN             NaN
             NaN             NaN             NaN
             NaN             NaN             NaN
             NaN             NaN             NaN
             NaN             NaN             NaN
             NaN             NaN             NaN
             NaN             NaN             NaN
             NaN             NaN             NaN
             NaN             NaN             NaN
             NaN             NaN             NaN
             NaN             NaN             NaN
             NaN             NaN             NaN
             NaN             NaN             NaN
             NaN             NaN             NaN
             NaN             NaN             NaN
             NaN             NaN             NaN
             NaN             NaN             NaN
             NaN             NaN             NaN
             NaN             NaN             NaN
             NaN             NaN             NaN
             NaN             NaN             NaN
             NaN             NaN             NaN
             NaN             NaN             NaN
             NaN             NaN             NaN
             NaN             NaN             NaN
             NaN             NaN             NaN
             NaN             NaN             NaN
             NaN             NaN             NaN
             NaN             NaN             NaN
             NaN             NaN             NaN
             NaN             NaN             NaN
             NaN             NaN             NaN
             NaN             NaN             NaN
             NaN             NaN             NaN
             NaN             NaN             NaN
             NaN             NaN             NaN
             NaN             NaN             NaN
             NaN             NaN             NaN
             NaN             NaN             NaN
             NaN             NaN             NaN
             NaN             NaN             NaN
             NaN             NaN             NaN
             NaN             NaN             NaN
             NaN             NaN             NaN
             NaN             NaN             NaN
             NaN             NaN             NaN
             NaN             NaN             NaN
             NaN             NaN             NaN
             NaN             NaN             NaN
             NaN             NaN             NaN
             NaN             NaN             NaN
             NaN             NaN             NaN
             NaN             NaN             NaN
             NaN             NaN             NaN
             NaN             NaN             NaN
             NaN             NaN             NaN
             NaN             NaN             NaN
             NaN             NaN             NaN
             NaN             NaN             NaN
             NaN             NaN             NaN
             NaN             NaN             NaN
             NaN             NaN             NaN
             NaN             NaN             NaN
             NaN             NaN             NaN
             NaN             NaN             NaN
             NaN             NaN             NaN
             NaN             NaN             NaN
             NaN             NaN             NaN
