C    H    Li                            
   1.0000000000000000     
    37.2234382628999967    0.0000000000000000    0.0000000000000000
     0.0000000000000000    8.5469398498999993    0.0000000000000000
     0.0000000000000000    0.0000000000000000   27.8030738831000015
   C    H    Li
   104    16     1
Direct
  0.4666844660469734  0.0041349192590531  0.4361834765050838
  0.4666860756866735  0.5041231826695016  0.4362372219581777
  0.4335899746398520  0.2540815265978927  0.4363487461165252
  0.4335855361601198  0.7540691789217073  0.4361911438063806
  0.3340686336192440  0.0036625526654021  0.4360240418726083
  0.3340956888307511  0.5039391058926760  0.4356989817110991
  0.3017203869777405  0.2575418390932575  0.4340496881314759
  0.3016488883194237  0.7575697449293339  0.4366912262989555
  0.4004640227723845  0.0045492905877545  0.4362190640899395
  0.4004668949036232  0.5045462153765996  0.4363704244727794
  0.3671812244085904  0.2541310139004099  0.4361811816019625
  0.3671818820937232  0.7541569605751960  0.4361416088073088
  0.4667123993394459  0.9959457086930907  0.5637871589806033
  0.4667148575521211  0.4959422073793160  0.5638257218128262
  0.4336225022130090  0.2459928073077248  0.5637098731660791
  0.4336138338639196  0.7460070041816488  0.5637823034414312
  0.3340981176146526  0.9962337517891787  0.5639959516600378
  0.3341145866179963  0.4963402354148792  0.5643659760911285
  0.3017864881396705  0.2422992145568507  0.5657672720379465
  0.3016798069710460  0.7425745056960612  0.5636871696502841
  0.4004890628154975  0.9955269330606588  0.5636565175391428
  0.4004988087580238  0.4955108745131150  0.5638205889687158
  0.3672200951686974  0.2459203798454344  0.5639371091636070
  0.3672074953346438  0.7459191459691816  0.5638124509338649
  0.4666803302695157  0.1709453773045855  0.4362246719001122
  0.4666779314839975  0.6709347671263587  0.4361810584622108
  0.4335846347940580  0.4210269244780756  0.4363466308263834
  0.4335794852370699  0.9210444916552127  0.4361793627255363
  0.3341017667672784  0.1713650602688136  0.4356260723744078
  0.3340766480720788  0.6716401511196269  0.4360674160486810
  0.3016857241853034  0.4178400679313622  0.4340859822794613
  0.3016312328413812  0.9177383161857704  0.4366092375090730
  0.4004602942418657  0.1706617064242304  0.4363381180330875
  0.4004573157926311  0.6706563272959973  0.4362116957246876
  0.3671685140288540  0.4211190353876287  0.4361949585464868
  0.3671705482930027  0.9210908336320813  0.4361269725891544
  0.3016628398442052  0.0821193270682335  0.5650884935888998
  0.3017002887682068  0.5824162934541292  0.5641865396714174
  0.4667141615833310  0.3291337045161600  0.5638054854655913
  0.4667099754341332  0.8291402186442496  0.5638220189189755
  0.3671956215601505  0.0789589812615628  0.5638109888910988
  0.3672099850407121  0.5789715513826305  0.5639567607615855
  0.3341504777074083  0.3286570470613353  0.5646446177522967
  0.3341076222236817  0.8284673372344907  0.5638099256021261
  0.4336142999255790  0.0790364464797912  0.5637059986149415
  0.4336170793191644  0.5790332333946828  0.5638081494315299
  0.4005006669697702  0.3294165225277146  0.5637540978168474
  0.4004887276274983  0.8294119083688951  0.5637368056500165
  0.5330570075213192  0.9958827289765028  0.5639350027011432
  0.5330576657968855  0.4958836119370904  0.5639410442527708
  0.5661499341138998  0.7459240266742444  0.5639794880449674
  0.5661506799198140  0.2459235584020696  0.5639783880327042
  0.6656418679096585  0.9961743234608691  0.5638701827112810
  0.6656422656665691  0.4961748255747440  0.5638692496015061
  0.6980586066896506  0.7423229362569581  0.5635993397420879
  0.6980591114490287  0.2423226991178797  0.5636047124355379
  0.4998845091281341  0.7457042349921504  0.5638712256664056
  0.4998883916820484  0.2456974598412196  0.5638536807363939
  0.5992720130171767  0.9953907358878104  0.5639885698227906
  0.5992724416906270  0.4953910673544148  0.5639893295463614
  0.6325560322129508  0.7457810654500603  0.5639864983615738
  0.6325567883935753  0.2457815530205678  0.5639869938787835
  0.5330297048993023  0.0041780434628698  0.4360635725978044
  0.5330299728216733  0.5041774685887275  0.4360737172818621
  0.5661231054226354  0.7541270019424766  0.4360209947614913
  0.5661234450823027  0.2541267348379075  0.4360232922179080
  0.6656165814375155  0.0038683628618057  0.4361290834419154
  0.6656168170342187  0.5038686541475136  0.4361289419710179
  0.6980336873488843  0.7577203142990819  0.4363980761258041
  0.6980340997438478  0.2577181810454568  0.4363991628438562
  0.4998559320169079  0.7543641638885719  0.4361331393601014
  0.4998587336172471  0.2543673315704155  0.4361665777788327
  0.5992449753922551  0.0046535404271636  0.4360114489531205
  0.5992451492566674  0.5046535946598116  0.4360131734119223
  0.6325286878094767  0.7542656739113250  0.4360121181969459
  0.6325293354183342  0.2542643899302429  0.4360121558970034
  0.5330596618385803  0.8290931426535427  0.5639429160288320
  0.5330610307909049  0.3290918692858911  0.5639422839428369
  0.5661492697215952  0.5789331759996102  0.5639912592146895
  0.5661489039628357  0.0789324254391714  0.5639887435357729
  0.6656343193463465  0.8283531404834341  0.5638792629831185
  0.6656349935811656  0.3283533241482544  0.5638805691518067
  0.6980711714681672  0.5821637538039336  0.5636449023653900
  0.6980710334424417  0.0821619758661850  0.5636500497598208
  0.4998872240890591  0.5793540661047647  0.5638905830957371
  0.4998864047181649  0.0793532445832105  0.5638676043715624
  0.5992725814573560  0.8293070068183962  0.5640095122193381
  0.5992732479678464  0.3293069770366508  0.5640098723627920
  0.6325584256166286  0.5788395161084304  0.5639856967545529
  0.6325582629931540  0.0788389902984676  0.5639859119215856
  0.6980509251744628  0.9178806855171764  0.4363530912793298
  0.6980512190767535  0.4178828902895378  0.4363535981260438
  0.4998557352570283  0.9207235128721324  0.4361130301643055
  0.4998583106628676  0.4207173100427606  0.4361502465006494
  0.5330329697667708  0.6709675674711564  0.4360621675919922
  0.5330341550584232  0.1709668860763439  0.4360648242382748
  0.6325381576633012  0.9212046977699508  0.4360136603913246
  0.6325386091881511  0.4212061784285628  0.4360140439870200
  0.6656144799777672  0.6716957680032961  0.4361176196472817
  0.6656147578850163  0.1716956286594379  0.4361179127770401
  0.5661260262022059  0.9211203018619718  0.4360095073190542
  0.5661261329379289  0.4211209011240649  0.4360147536534199
  0.5992509795602358  0.6707416817479419  0.4359904223760760
  0.5992513205252080  0.1707416044500302  0.4359896650050907
  0.7237731091809333  0.9783936600269479  0.4366582773766235
  0.7237733259478287  0.4783930403491703  0.4366598109261235
  0.7237700446210170  0.8029120351789497  0.5632270173202009
  0.7237708121873051  0.3029090641140034  0.5632372882723261
  0.7237478254280311  0.6971286052655363  0.4367717214735713
  0.7237481763882424  0.1971296481425635  0.4367745193700322
  0.7237953217841042  0.0216467253298215  0.5633509352097066
  0.7237956150659349  0.5216486296625060  0.5633410930998349
  0.2759200563468451  0.0216250304327717  0.5659208161534717
  0.2758661243761685  0.5223511406641901  0.5644413319990025
  0.2760676434558281  0.1960871207194615  0.4317286498582127
  0.2759082304113407  0.6971475344099620  0.4375433879232725
  0.2760653634219642  0.3032542596646354  0.5682950521398069
  0.2759462250961338  0.8030046984907157  0.5631591201243280
  0.2758704924487848  0.9780361573141372  0.4373417111979216
  0.2760197147050118  0.4791133000771668  0.4318722654401485
  0.2258902623180579  0.3272233028790001  0.4987904374781943

             NaN             NaN             NaN
             NaN             NaN             NaN
             NaN             NaN             NaN
             NaN             NaN             NaN
             NaN             NaN             NaN
             NaN             NaN             NaN
             NaN             NaN             NaN
             NaN             NaN             NaN
             NaN             NaN             NaN
             NaN             NaN             NaN
             NaN             NaN             NaN
             NaN             NaN             NaN
             NaN             NaN             NaN
             NaN             NaN             NaN
             NaN             NaN             NaN
             NaN             NaN             NaN
             NaN             NaN             NaN
             NaN             NaN             NaN
             NaN             NaN             NaN
             NaN             NaN             NaN
             NaN             NaN             NaN
             NaN             NaN             NaN
             NaN             NaN             NaN
             NaN             NaN             NaN
             NaN             NaN             NaN
             NaN             NaN             NaN
             NaN             NaN             NaN
             NaN             NaN             NaN
             NaN             NaN             NaN
             NaN             NaN             NaN
             NaN             NaN             NaN
             NaN             NaN             NaN
             NaN             NaN             NaN
             NaN             NaN             NaN
             NaN             NaN             NaN
             NaN             NaN             NaN
             NaN             NaN             NaN
             NaN             NaN             NaN
             NaN             NaN             NaN
             NaN             NaN             NaN
             NaN             NaN             NaN
             NaN             NaN             NaN
             NaN             NaN             NaN
             NaN             NaN             NaN
             NaN             NaN             NaN
             NaN             NaN             NaN
             NaN             NaN             NaN
             NaN             NaN             NaN
             NaN             NaN             NaN
             NaN             NaN             NaN
             NaN             NaN             NaN
             NaN             NaN             NaN
             NaN             NaN             NaN
             NaN             NaN             NaN
             NaN             NaN             NaN
             NaN             NaN             NaN
             NaN             NaN             NaN
             NaN             NaN             NaN
             NaN             NaN             NaN
             NaN             NaN             NaN
             NaN             NaN             NaN
             NaN             NaN             NaN
             NaN             NaN             NaN
             NaN             NaN             NaN
             NaN             NaN             NaN
             NaN             NaN             NaN
             NaN             NaN             NaN
             NaN             NaN             NaN
             NaN             NaN             NaN
             NaN             NaN             NaN
             NaN             NaN             NaN
             NaN             NaN             NaN
             NaN             NaN             NaN
             NaN             NaN             NaN
             NaN             NaN             NaN
             NaN             NaN             NaN
             NaN             NaN             NaN
             NaN             NaN             NaN
             NaN             NaN             NaN
             NaN             NaN             NaN
             NaN             NaN             NaN
             NaN             NaN             NaN
             NaN             NaN             NaN
             NaN             NaN             NaN
             NaN             NaN             NaN
             NaN             NaN             NaN
             NaN             NaN             NaN
             NaN             NaN             NaN
             NaN             NaN             NaN
             NaN             NaN             NaN
             NaN             NaN             NaN
             NaN             NaN             NaN
             NaN             NaN             NaN
             NaN             NaN             NaN
             NaN             NaN             NaN
             NaN             NaN             NaN
             NaN             NaN             NaN
             NaN             NaN             NaN
             NaN             NaN             NaN
             NaN             NaN             NaN
             NaN             NaN             NaN
             NaN             NaN             NaN
             NaN             NaN             NaN
             NaN             NaN             NaN
             NaN             NaN             NaN
             NaN             NaN             NaN
             NaN             NaN             NaN
             NaN             NaN             NaN
             NaN             NaN             NaN
             NaN             NaN             NaN
             NaN             NaN             NaN
             NaN             NaN             NaN
             NaN             NaN             NaN
             NaN             NaN             NaN
             NaN             NaN             NaN
             NaN             NaN             NaN
             NaN             NaN             NaN
             NaN             NaN             NaN
             NaN             NaN             NaN
             NaN             NaN             NaN
             NaN             NaN             NaN
