C    H    Li                            
   1.0000000000000000     
    37.2234382628999967    0.0000000000000000    0.0000000000000000
     0.0000000000000000    8.5469398498999993    0.0000000000000000
     0.0000000000000000    0.0000000000000000   27.8030738831000015
   C    H    Li
   104    16     1
Direct
  0.4662556179596851  0.0062658383994311  0.4367480649745340
  0.4662874206712594  0.5062421335773792  0.4368258483094341
  0.4331264986401019  0.2562742946042894  0.4365440277163758
  0.4330753856421739  0.7562445203225300  0.4362778429579031
  0.3334414461113972  0.0053532966981362  0.4341569175623498
  0.3335645100233207  0.5071125585901134  0.4302764276891512
  0.3012949583475579  0.2590123142351070  0.4244164806813807
  0.3010199530274106  0.7595913344961446  0.4360004777520470
  0.3999904987149317  0.0063073058507604  0.4357411032992081
  0.4000910243662001  0.5066820290071599  0.4354486068421338
  0.3668655675835478  0.2560982236615678  0.4332715527714646
  0.3667117247671539  0.7564474886815838  0.4348304632220912
  0.4666787754314038  0.9936046547438188  0.5637612494617507
  0.4666839562030276  0.4935954210874881  0.5640283680120640
  0.4335756082730006  0.2435490694847324  0.5646496868885569
  0.4335214316598959  0.7436511527271072  0.5642840997514801
  0.3339770804152400  0.9934536025688253  0.5672472303170069
  0.3339657989186782  0.4943513169515508  0.5682810138434754
  0.3015158261141934  0.2396105038184657  0.5728478361729707
  0.3015106146370207  0.7403104662887862  0.5646897556651606
  0.4004595149502230  0.9932666705188115  0.5649345007778935
  0.4004759270964442  0.4934905067387520  0.5658317407345369
  0.3673294729875611  0.2431839745072415  0.5678712774084933
  0.3671588241179420  0.7436483644985794  0.5654376012068306
  0.4662771226866745  0.1729517454165801  0.4368597530516272
  0.4662512867977994  0.6729286179860292  0.4366875170244713
  0.4331271598999173  0.4230054404358546  0.4364749653927941
  0.4330664885654227  0.9230534012950091  0.4363457942431710
  0.3335330827018037  0.1726537751920474  0.4310278064394296
  0.3334681452601755  0.6743459334928543  0.4335017514526080
  0.3012979038216536  0.4206018008339666  0.4239202927234795
  0.3010011872642601  0.9199934414911639  0.4363357605800769
  0.4000703650241876  0.1728298674778257  0.4356888779555892
  0.3999967658651286  0.6731794790788023  0.4354494481541083
  0.3668694878220112  0.4234942721817880  0.4329825376072348
  0.3666939919074224  0.9231286907107836  0.4350800002155710
  0.3016021590623908  0.0791187722949213  0.5708829619890764
  0.3014106326399891  0.5801051090624753  0.5664037895254077
  0.4666925270733808  0.3269040244623652  0.5640132391961776
  0.4666591021151263  0.8269098572733053  0.5637846822546676
  0.3672018536709055  0.0762573903472335  0.5666610179523424
  0.3672258175007084  0.5769287938763891  0.5664208099374842
  0.3340795484338558  0.3262595462814026  0.5707054715145908
  0.3339426466711819  0.8261600965786415  0.5656198596923698
  0.4335417336702231  0.0767924348782247  0.5643732903096306
  0.4335423620110543  0.5768621897845295  0.5645946839531332
  0.4005205111486116  0.3269001585806826  0.5660698063601297
  0.4004282385932862  0.8268584539082714  0.5647720858112562
  0.5329623352903466  0.9936363424406975  0.5635465463557618
  0.5329636988235771  0.4936290994256040  0.5635979199872680
  0.5660710969619904  0.7437066615757165  0.5635835129627349
  0.5660794937729700  0.2437085027356309  0.5635807212597276
  0.6655488401424855  0.9940622384227943  0.5636356651045393
  0.6655493122201824  0.4940654744841254  0.5636317252891179
  0.6979498039185444  0.7402644117633747  0.5633688597240692
  0.6979508324708376  0.2402605729933107  0.5633795302526650
  0.4998020006890469  0.7435528687379968  0.5635996539801937
  0.4998234926597257  0.2435411098574565  0.5636245302266811
  0.5991756941328183  0.9933042282951794  0.5636411000814275
  0.5991763570572189  0.4933067900512698  0.5636474651123161
  0.6324517692722347  0.7436536259976548  0.5637166914345338
  0.6324544756962522  0.2436539162574794  0.5637161658077467
  0.5325496076556037  0.0062226026220274  0.4366580505187784
  0.5325656436096353  0.5062073496824289  0.4366890793209189
  0.5656819667752163  0.7560947537262085  0.4364894292543678
  0.5656930692300970  0.2561010656686242  0.4365038880832741
  0.6651756438921140  0.0056651806227067  0.4362882015939649
  0.6651790326660015  0.5056700772943601  0.4362890014381053
  0.6975706182504324  0.7594757339927261  0.4365867880276844
  0.6975722512305048  0.2594721593881447  0.4365844159091717
  0.4993836634268242  0.7562326239027314  0.4367839629574854
  0.4994118042271881  0.2562727929358490  0.4369082145902387
  0.5987828484613158  0.0064498268917635  0.4363214227333086
  0.5987902365244800  0.5064544928280627  0.4363312420746887
  0.6320679747611643  0.7561060384830506  0.4362025788807765
  0.6320710579163946  0.2561009607142618  0.4362016660514322
  0.5329554599989714  0.8269249828197649  0.5635573530642037
  0.5329700412857955  0.3269309871422211  0.5635846887861242
  0.5660724542362746  0.5767894081429787  0.5636089448360089
  0.5660727084893510  0.0767914872531674  0.5635910186261720
  0.6655369358185187  0.8262743302137081  0.5636515064483354
  0.6655386486361743  0.3262749624728691  0.5636522502107795
  0.6979695557186656  0.5800789577088422  0.5634344421137677
  0.6979693485767532  0.0800734801062418  0.5634481027046061
  0.4998106887806257  0.5769864211388432  0.5636845552288164
  0.4998139336017614  0.0769976752222493  0.5635968830446432
  0.5991747843152846  0.8271065070900185  0.5636716194366006
  0.5991800583634379  0.3271093805512221  0.5636738409120479
  0.6324555282643736  0.5767492791607052  0.5637072373701335
  0.6324550815042740  0.0767461640751640  0.5637067863477034
  0.6975936583223329  0.9196913034933323  0.4365214103985299
  0.6975956538599823  0.4196968826304376  0.4365188467184947
  0.4993825433188412  0.9229197779407986  0.4367635737484419
  0.4994134667147077  0.4228681939327432  0.4368774459247931
  0.5325483968358771  0.6729037254491158  0.4366628736084236
  0.5325633289504457  0.1729145118253453  0.4366895258495674
  0.6320711482342927  0.9230057829553039  0.4362100759983801
  0.6320744850976684  0.4230090853849455  0.4362135009822156
  0.6651632951180744  0.6734906788319917  0.4362730772376093
  0.6651664482851000  0.1734860796645111  0.4362711812423286
  0.5656793322595972  0.9230382995716344  0.4364681284531963
  0.5656910703483361  0.4230271571607598  0.4364908610414736
  0.5987814434645795  0.6727063254713816  0.4362992772202309
  0.5987888082714062  0.1726970168278490  0.4362955461312896
  0.7233183295850146  0.9801980864757194  0.4368648604090319
  0.7233209504956534  0.4801982996457482  0.4368596780996899
  0.7236581642548007  0.8008817149666477  0.5629821932376973
  0.7236598734271351  0.3008731231842885  0.5630033801372215
  0.7232806763271401  0.6988579746793407  0.4369976469342889
  0.7232831137457113  0.1988593362244370  0.4369935164271623
  0.7236922348902277  0.0195578503361611  0.5631468954023805
  0.7236926442167508  0.5195644525500647  0.5631213716838801
  0.2759752167334021  0.0182695019130332  0.5732003195625081
  0.2756311924566589  0.5197316595067575  0.5664657241435332
  0.2759844575255028  0.1976259002619663  0.4190795447332634
  0.2754156603923109  0.6984028508150332  0.4384113438901755
  0.2759487788414791  0.2998724269631171  0.5773765890171900
  0.2758267064051990  0.8008347385227821  0.5627100200156860
  0.2753776217556803  0.9809382539163007  0.4390067272859060
  0.2760074003634949  0.4817320809709805  0.4181587153104245
  0.3246040963422102  0.3448754553248111  0.4943237781624857

             NaN             NaN             NaN
             NaN             NaN             NaN
             NaN             NaN             NaN
             NaN             NaN             NaN
             NaN             NaN             NaN
             NaN             NaN             NaN
             NaN             NaN             NaN
             NaN             NaN             NaN
             NaN             NaN             NaN
             NaN             NaN             NaN
             NaN             NaN             NaN
             NaN             NaN             NaN
             NaN             NaN             NaN
             NaN             NaN             NaN
             NaN             NaN             NaN
             NaN             NaN             NaN
             NaN             NaN             NaN
             NaN             NaN             NaN
             NaN             NaN             NaN
             NaN             NaN             NaN
             NaN             NaN             NaN
             NaN             NaN             NaN
             NaN             NaN             NaN
             NaN             NaN             NaN
             NaN             NaN             NaN
             NaN             NaN             NaN
             NaN             NaN             NaN
             NaN             NaN             NaN
             NaN             NaN             NaN
             NaN             NaN             NaN
             NaN             NaN             NaN
             NaN             NaN             NaN
             NaN             NaN             NaN
             NaN             NaN             NaN
             NaN             NaN             NaN
             NaN             NaN             NaN
             NaN             NaN             NaN
             NaN             NaN             NaN
             NaN             NaN             NaN
             NaN             NaN             NaN
             NaN             NaN             NaN
             NaN             NaN             NaN
             NaN             NaN             NaN
             NaN             NaN             NaN
             NaN             NaN             NaN
             NaN             NaN             NaN
             NaN             NaN             NaN
             NaN             NaN             NaN
             NaN             NaN             NaN
             NaN             NaN             NaN
             NaN             NaN             NaN
             NaN             NaN             NaN
             NaN             NaN             NaN
             NaN             NaN             NaN
             NaN             NaN             NaN
             NaN             NaN             NaN
             NaN             NaN             NaN
             NaN             NaN             NaN
             NaN             NaN             NaN
             NaN             NaN             NaN
             NaN             NaN             NaN
             NaN             NaN             NaN
             NaN             NaN             NaN
             NaN             NaN             NaN
             NaN             NaN             NaN
             NaN             NaN             NaN
             NaN             NaN             NaN
             NaN             NaN             NaN
             NaN             NaN             NaN
             NaN             NaN             NaN
             NaN             NaN             NaN
             NaN             NaN             NaN
             NaN             NaN             NaN
             NaN             NaN             NaN
             NaN             NaN             NaN
             NaN             NaN             NaN
             NaN             NaN             NaN
             NaN             NaN             NaN
             NaN             NaN             NaN
             NaN             NaN             NaN
             NaN             NaN             NaN
             NaN             NaN             NaN
             NaN             NaN             NaN
             NaN             NaN             NaN
             NaN             NaN             NaN
             NaN             NaN             NaN
             NaN             NaN             NaN
             NaN             NaN             NaN
             NaN             NaN             NaN
             NaN             NaN             NaN
             NaN             NaN             NaN
             NaN             NaN             NaN
             NaN             NaN             NaN
             NaN             NaN             NaN
             NaN             NaN             NaN
             NaN             NaN             NaN
             NaN             NaN             NaN
             NaN             NaN             NaN
             NaN             NaN             NaN
             NaN             NaN             NaN
             NaN             NaN             NaN
             NaN             NaN             NaN
             NaN             NaN             NaN
             NaN             NaN             NaN
             NaN             NaN             NaN
             NaN             NaN             NaN
             NaN             NaN             NaN
             NaN             NaN             NaN
             NaN             NaN             NaN
             NaN             NaN             NaN
             NaN             NaN             NaN
             NaN             NaN             NaN
             NaN             NaN             NaN
             NaN             NaN             NaN
             NaN             NaN             NaN
             NaN             NaN             NaN
             NaN             NaN             NaN
             NaN             NaN             NaN
             NaN             NaN             NaN
             NaN             NaN             NaN
             NaN             NaN             NaN
