C    H    Li                            
   1.0000000000000000     
    37.2234382628999967    0.0000000000000000    0.0000000000000000
     0.0000000000000000    8.5469398498999993    0.0000000000000000
     0.0000000000000000    0.0000000000000000   27.8030738831000015
   C    H    Li
   104    16     1
Direct
  0.4663598090249262  0.0057584562653545  0.4366626283688371
  0.4663915468249999  0.5057251681839074  0.4367392719354791
  0.4332234785119770  0.2557854374314964  0.4365786927789904
  0.4331785011328925  0.7557404016906021  0.4362549813813176
  0.3335333823275618  0.0049113428380165  0.4343431260605505
  0.3336532374935209  0.5065985268683291  0.4304808244102001
  0.3013715447891659  0.2585266287339807  0.4247557400244051
  0.3011155965242781  0.7591210196428875  0.4357786805417314
  0.4000856845769843  0.0058380898598567  0.4358717644423194
  0.4001787457226336  0.5061885390852536  0.4355907196328899
  0.3669434430139649  0.2556503551020328  0.4336485768232776
  0.3668091883805537  0.7559761098753536  0.4349267450641947
  0.4667103864752141  0.9940736377353493  0.5637236066498609
  0.4667163970675524  0.4940622204832120  0.5639752114595744
  0.4336071653123726  0.2440129262725934  0.5645948707591729
  0.4335533374449249  0.7441097309714948  0.5642108552656478
  0.3340043044914776  0.9938928669765785  0.5670275608972768
  0.3340071649165216  0.4947588267024975  0.5684076387065445
  0.3015568826621888  0.2400449003381339  0.5727922684017694
  0.3015442579875579  0.7407224188748264  0.5647286089543985
  0.4004920120554061  0.9937253971867301  0.5648311503615666
  0.4005080653002691  0.4939396777905256  0.5657743248785380
  0.3673703126757362  0.2436089364702417  0.5678472750724922
  0.3671937406006868  0.7440754282855432  0.5653324977451401
  0.4663779624924095  0.1724516670330912  0.4367818354504399
  0.4663565422924331  0.6724155017283090  0.4365938992234179
  0.4332260669704376  0.4225105510121872  0.4365007325242573
  0.4331667428152772  0.9225602387625023  0.4363395715430694
  0.3336105270622379  0.1722679008016079  0.4314342501516124
  0.3335692142451925  0.6738806597170565  0.4335421830511895
  0.3013778209406578  0.4201616614368213  0.4240760978988981
  0.3010925100862864  0.9195005412083489  0.4361904618402355
  0.4001537293650165  0.1723693602427812  0.4358756660054531
  0.4000938450312377  0.6726874736067404  0.4355248057626382
  0.3669521488336386  0.4230050807160137  0.4333068237341007
  0.3667868633929686  0.9226746556517793  0.4352320788383635
  0.3016311642538418  0.0795482654836844  0.5706011412673836
  0.3014427357368258  0.5805115573175508  0.5666321753836904
  0.4667255755937313  0.3273741028178268  0.5639646777421662
  0.4666924570376716  0.8273849260447791  0.5637403312543373
  0.3672355528031760  0.0767078586404523  0.5665459510311621
  0.3672632412611310  0.5773677009585287  0.5663918613909105
  0.3341335294746020  0.3266746173118842  0.5708007636740666
  0.3339732231569676  0.8265896698485121  0.5654679700548029
  0.4335726347465031  0.0772578322085904  0.5643122014444554
  0.4335736321100968  0.5773221000539475  0.5645252237397675
  0.4005520880016488  0.3273446436334613  0.5660265126664406
  0.4004612938835277  0.8273025098250668  0.5646625745425237
  0.5329939817322722  0.9941099445695851  0.5635452480176413
  0.5329954570082271  0.4941029170054965  0.5635856766934475
  0.5661042343432172  0.7441845596854232  0.5636065491826200
  0.5661125872981175  0.2441863501567448  0.5636007153071662
  0.6655827033543542  0.9945351497187163  0.5636736105194972
  0.6655829901241346  0.4945382523356860  0.5636693112284734
  0.6979805055064024  0.7407328433541122  0.5634104265077329
  0.6979818757714581  0.2407283688714297  0.5634206095678953
  0.4998334352582062  0.7440319415544263  0.5635727744164225
  0.4998551304172996  0.2440153935878936  0.5635973715030649
  0.5992077669316914  0.9937855038534986  0.5636731734864926
  0.5992082992255071  0.4937881816101258  0.5636777673502531
  0.6324819052532776  0.7441347416857164  0.5637488837132388
  0.6324850299899336  0.2441335050269068  0.5637483885941712
  0.5326604337392900  0.0056905331230172  0.4365108514537767
  0.5326768243225281  0.5056784776403133  0.4365434580027028
  0.5657954870085312  0.7555592746487668  0.4363685743043575
  0.5658058163260083  0.2555621648841009  0.4363904084803098
  0.6652923020151786  0.0051455733066351  0.4362838733949813
  0.6652953419142883  0.5051495333148556  0.4362840010980468
  0.6976904974879192  0.7589687094268490  0.4365776397792375
  0.6976916148886377  0.2589657769847585  0.4365768969333050
  0.4994908258470691  0.7557157252587149  0.4366373682905056
  0.4995180540106017  0.2557572030545400  0.4367700221917943
  0.5988977485894759  0.0059145773523833  0.4362491825965709
  0.5989047794142257  0.5059181650454467  0.4362563806098775
  0.6321842958917513  0.7555788195884893  0.4361737382672792
  0.6321867646514117  0.2555747277712219  0.4361746164579043
  0.5329872460445435  0.8274000439916508  0.5635539846883815
  0.5330015712223293  0.3274052848229316  0.5635742241767081
  0.5661044491416996  0.5772686852906325  0.5636282736003341
  0.5661049516745380  0.0772717692343067  0.5636115184355477
  0.6655672648457756  0.8267428153425364  0.5636866664724559
  0.6655691327598690  0.3267439557190799  0.5636872557923525
  0.6980017939896147  0.5805430008741735  0.5634795024791768
  0.6980017025605009  0.0805390990744411  0.5634928071293097
  0.4998417266928241  0.5774601453063445  0.5636510265863132
  0.4998449092239906  0.0774684805314978  0.5635782880118400
  0.5992048952100313  0.8275905896285410  0.5637044704957540
  0.5992101151719703  0.3275945332773129  0.5637032854461997
  0.6324868006072046  0.5772262908149229  0.5637388875255951
  0.6324864547974545  0.0772236415520685  0.5637388737342148
  0.6977125694997045  0.9191892310096830  0.4365146602071172
  0.6977143654852953  0.4191931114052841  0.4365129073860389
  0.4994890670497224  0.9224047894026617  0.4366155738957709
  0.4995213713598841  0.4223527440348107  0.4367349934475642
  0.5326596952649852  0.6723783569179704  0.4365139932414096
  0.5326731431187113  0.1723852545487183  0.4365470524656077
  0.6321880664170361  0.9224762730843469  0.4361850432994323
  0.6321910957700506  0.4224794799689873  0.4361878404334330
  0.6652815641280478  0.6729821976897773  0.4362656219464792
  0.6652843834085318  0.1729777269773277  0.4362652500978985
  0.5657924462908622  0.9225100612550113  0.4363497810275171
  0.5658038275676771  0.4224976741467647  0.4363755840553352
  0.5988973804591752  0.6721664685465923  0.4362201502390409
  0.5989041386503202  0.1721605151041363  0.4362212444779694
  0.7234370893003073  0.9796982571216377  0.4368595571909391
  0.7234395996890218  0.4796975589779232  0.4368558441939902
  0.7236882228078700  0.8013539971378266  0.5630321915292178
  0.7236904523973515  0.3013459684091189  0.5630510270302620
  0.7234014383175394  0.6983571768350813  0.4369961238418448
  0.7234034674209361  0.1983569554915717  0.4369946097205613
  0.7237267713204912  0.0200336185398317  0.5631994040405597
  0.7237271234744935  0.5200413929462736  0.5631744620481026
  0.2759877150410852  0.0187515795723964  0.5727111267856286
  0.2756471681811776  0.5202573755612729  0.5670534532583611
  0.2760595544621644  0.1971240641536640  0.4194556946667733
  0.2754927365801420  0.6979666820234625  0.4378777912167520
  0.2759850407347160  0.3002087005947322  0.5774318761380829
  0.2758506953090065  0.8012030050667925  0.5628587248689769
  0.2754448383694654  0.9803504109552988  0.4385940871061398
  0.2760954672397892  0.4812393365506105  0.4182079515799337
  0.3229242098631854  0.3474810536333889  0.4950256497130103

             NaN             NaN             NaN
             NaN             NaN             NaN
             NaN             NaN             NaN
             NaN             NaN             NaN
             NaN             NaN             NaN
             NaN             NaN             NaN
             NaN             NaN             NaN
             NaN             NaN             NaN
             NaN             NaN             NaN
             NaN             NaN             NaN
             NaN             NaN             NaN
             NaN             NaN             NaN
             NaN             NaN             NaN
             NaN             NaN             NaN
             NaN             NaN             NaN
             NaN             NaN             NaN
             NaN             NaN             NaN
             NaN             NaN             NaN
             NaN             NaN             NaN
             NaN             NaN             NaN
             NaN             NaN             NaN
             NaN             NaN             NaN
             NaN             NaN             NaN
             NaN             NaN             NaN
             NaN             NaN             NaN
             NaN             NaN             NaN
             NaN             NaN             NaN
             NaN             NaN             NaN
             NaN             NaN             NaN
             NaN             NaN             NaN
             NaN             NaN             NaN
             NaN             NaN             NaN
             NaN             NaN             NaN
             NaN             NaN             NaN
             NaN             NaN             NaN
             NaN             NaN             NaN
             NaN             NaN             NaN
             NaN             NaN             NaN
             NaN             NaN             NaN
             NaN             NaN             NaN
             NaN             NaN             NaN
             NaN             NaN             NaN
             NaN             NaN             NaN
             NaN             NaN             NaN
             NaN             NaN             NaN
             NaN             NaN             NaN
             NaN             NaN             NaN
             NaN             NaN             NaN
             NaN             NaN             NaN
             NaN             NaN             NaN
             NaN             NaN             NaN
             NaN             NaN             NaN
             NaN             NaN             NaN
             NaN             NaN             NaN
             NaN             NaN             NaN
             NaN             NaN             NaN
             NaN             NaN             NaN
             NaN             NaN             NaN
             NaN             NaN             NaN
             NaN             NaN             NaN
             NaN             NaN             NaN
             NaN             NaN             NaN
             NaN             NaN             NaN
             NaN             NaN             NaN
             NaN             NaN             NaN
             NaN             NaN             NaN
             NaN             NaN             NaN
             NaN             NaN             NaN
             NaN             NaN             NaN
             NaN             NaN             NaN
             NaN             NaN             NaN
             NaN             NaN             NaN
             NaN             NaN             NaN
             NaN             NaN             NaN
             NaN             NaN             NaN
             NaN             NaN             NaN
             NaN             NaN             NaN
             NaN             NaN             NaN
             NaN             NaN             NaN
             NaN             NaN             NaN
             NaN             NaN             NaN
             NaN             NaN             NaN
             NaN             NaN             NaN
             NaN             NaN             NaN
             NaN             NaN             NaN
             NaN             NaN             NaN
             NaN             NaN             NaN
             NaN             NaN             NaN
             NaN             NaN             NaN
             NaN             NaN             NaN
             NaN             NaN             NaN
             NaN             NaN             NaN
             NaN             NaN             NaN
             NaN             NaN             NaN
             NaN             NaN             NaN
             NaN             NaN             NaN
             NaN             NaN             NaN
             NaN             NaN             NaN
             NaN             NaN             NaN
             NaN             NaN             NaN
             NaN             NaN             NaN
             NaN             NaN             NaN
             NaN             NaN             NaN
             NaN             NaN             NaN
             NaN             NaN             NaN
             NaN             NaN             NaN
             NaN             NaN             NaN
             NaN             NaN             NaN
             NaN             NaN             NaN
             NaN             NaN             NaN
             NaN             NaN             NaN
             NaN             NaN             NaN
             NaN             NaN             NaN
             NaN             NaN             NaN
             NaN             NaN             NaN
             NaN             NaN             NaN
             NaN             NaN             NaN
             NaN             NaN             NaN
             NaN             NaN             NaN
             NaN             NaN             NaN
             NaN             NaN             NaN
