C    H    Li                            
   1.0000000000000000     
    37.2234382628999967    0.0000000000000000    0.0000000000000000
     0.0000000000000000    8.5469398498999993    0.0000000000000000
     0.0000000000000000    0.0000000000000000   27.8030738831000015
   C    H    Li
   104    16     1
Direct
  0.4661928363258492  0.0057888831684162  0.4366916001508608
  0.4662181075825017  0.5057457888270326  0.4368140373286473
  0.4330599428294016  0.2558474306448009  0.4368531058880660
  0.4330129390439586  0.7557761244404312  0.4364859663807130
  0.3333773777668522  0.0051531569286657  0.4353045812442725
  0.3334803294870307  0.5064181525894647  0.4316141307534084
  0.3012177479819991  0.2584179859169602  0.4255135706482446
  0.3009765342794140  0.7592425911975972  0.4367558117559722
  0.3999139184526854  0.0059366573959040  0.4363431316835070
  0.3999667134080651  0.5061656904627087  0.4362008771589733
  0.3667494475663726  0.2557476351311459  0.4346562767190390
  0.3666415833973183  0.7560044140395618  0.4356753340525041
  0.4663629337377994  0.9937609518521536  0.5632837076204802
  0.4663684506583859  0.4937580619026552  0.5635093138179503
  0.4332454003907367  0.2436516619076664  0.5637513791894528
  0.4331855791893246  0.7437379434255977  0.5635134439083468
  0.3336107458692334  0.9934235676888579  0.5660407833495429
  0.3336760770206339  0.4940607347242930  0.5674716496680678
  0.3012850996898662  0.2395079036888484  0.5730737586414852
  0.3011696167810363  0.7402685210254070  0.5633172421454444
  0.4001130399850516  0.9933810563238991  0.5637925179537659
  0.4001388266965639  0.4935250255578363  0.5646980706690546
  0.3670357810109746  0.2431323258326433  0.5666850770310243
  0.3668281399287472  0.7435496487641603  0.5641718890342227
  0.4662070670004299  0.1725268832058081  0.4368254274734228
  0.4661880300814709  0.6724797388131732  0.4366514222039709
  0.4330565434813444  0.4225402264223445  0.4368110651815767
  0.4329991399765417  0.9226238806669098  0.4365448089244102
  0.3334351990411958  0.1725837429204453  0.4326225669495913
  0.3334173043624734  0.6738312424529025  0.4344913064530933
  0.3012170687700517  0.4203485448688800  0.4245308862583949
  0.3009467407218626  0.9195975536575036  0.4371606448526607
  0.3999486018313092  0.1724796447412392  0.4364006258706523
  0.3999180084344686  0.6726849387709236  0.4360466509852345
  0.3667531278964670  0.4229147177674798  0.4343525712696677
  0.3666135185271919  0.9227852710144703  0.4359630542957206
  0.3013091120006616  0.0788237979167212  0.5705460388823704
  0.3010742628287706  0.5798471597486475  0.5655083115468064
  0.4663758636898364  0.3270698427185512  0.5634586040817667
  0.4663435796717850  0.8270776229025666  0.5633367064575845
  0.3668706358083505  0.0763766193859599  0.5654070515546641
  0.3669203577676844  0.5769143085265040  0.5652060317233689
  0.3338637459131302  0.3261665513786678  0.5700975246857938
  0.3335679197247726  0.8261149260491545  0.5642376778497727
  0.4332032504827784  0.0769121818931988  0.5635210572229001
  0.4332080553349435  0.5769691415903312  0.5637779863625542
  0.4001756062440086  0.3268698726856122  0.5648863466909427
  0.4000844780913280  0.8268496785319985  0.5636832831608964
  0.5326524144893876  0.9938853577733434  0.5635137037179654
  0.5326547335211486  0.4938885194874498  0.5635547608733150
  0.5657725150360596  0.7440344422346199  0.5636598118079208
  0.5657804377731794  0.2440318814017929  0.5636451687714601
  0.6652644666338826  0.9945124579915624  0.5637481681648177
  0.6652644329030203  0.4945150106075779  0.5637416424339539
  0.6976634017647741  0.7407171211619588  0.5634529361706728
  0.6976645342925379  0.2407136647101019  0.5634657025652077
  0.4994847091245269  0.7437867821701513  0.5633940046265570
  0.4995079140534110  0.2437741919065365  0.5633637149277483
  0.5988795380391205  0.9936966396165554  0.5637625068647476
  0.5988800442517356  0.4937014174066421  0.5637673051866856
  0.6321595042562836  0.7440807312530994  0.5638432999123031
  0.6321618045203812  0.2440802997409895  0.5638418616289704
  0.5325068586520706  0.0057639556151660  0.4364353191562041
  0.5325217845048918  0.5057523414273186  0.4364774138512837
  0.5656412106399684  0.7556251405740774  0.4363034381797589
  0.5656495446814144  0.2556288248461535  0.4363229814560995
  0.6651389918540115  0.0052034564736504  0.4362444200622757
  0.6651424505979912  0.5052071838335203  0.4362448297515487
  0.6975404986964926  0.7590306867086544  0.4365650330697371
  0.6975418358520156  0.2590269876167659  0.4365631801190136
  0.4993301044297215  0.7557826403152899  0.4365953813253327
  0.4993555584274341  0.2558301785759606  0.4367294996034575
  0.5987468703474127  0.0059946445137558  0.4361806783424291
  0.5987534625484813  0.5059990541504571  0.4361908430384036
  0.6320345800759827  0.7556441223387952  0.4361099077981600
  0.6320367366440229  0.2556403432189340  0.4361110758670839
  0.5326444818812182  0.8271852449181963  0.5635299085947705
  0.5326583392638093  0.3271896684215054  0.5635305104777614
  0.5657724935580278  0.5771152916975856  0.5636814151618289
  0.5657712383404617  0.0771096321511514  0.5636595314934499
  0.6652509952874580  0.8267160407201927  0.5637630503375566
  0.6652523440726680  0.3267154979662967  0.5637634463662463
  0.6976872404281160  0.5805190613844481  0.5635097536574329
  0.6976880968305030  0.0805151576710634  0.5635283150759902
  0.4994942171703733  0.5771815569559999  0.5634572716356272
  0.4994951090820065  0.0771877464707606  0.5633616785845598
  0.5988769214627964  0.8274843695425115  0.5637965552019578
  0.5988812850033562  0.3274854643291363  0.5637934133208713
  0.6321644943441159  0.5771743424693510  0.5638331452422282
  0.6321641110916845  0.0771710371740218  0.5638335129874176
  0.6975614232125273  0.9192455689914548  0.4365069636460175
  0.6975633615574650  0.4192489393895929  0.4365044217629630
  0.4993275661790795  0.9224515752473680  0.4365657133042203
  0.4993567910092230  0.4224012522410309  0.4367031132625952
  0.5325061489208552  0.6724556854339971  0.4364475502994759
  0.5325188941012102  0.1724631775071286  0.4364729925155892
  0.6320383934808693  0.9225445074285527  0.4361197040604068
  0.6320411697246117  0.4225487854031514  0.4361234320498435
  0.6651304382782800  0.6730431328698098  0.4362246988060525
  0.6651327182465987  0.1730396019603143  0.4362241732551957
  0.5656374603277564  0.9225947212485893  0.4362798958195177
  0.5656471860049717  0.4225848301323242  0.4363097330370721
  0.5987465660204858  0.6722324527064020  0.4361557421751328
  0.5987525390650761  0.1722270922614927  0.4361552941087638
  0.7232858747822715  0.9797565563487819  0.4368711550783301
  0.7232884992784103  0.4797560439791308  0.4368654240494919
  0.7233706809261243  0.8013551837526744  0.5630375651090787
  0.7233721605175425  0.3013494373615995  0.5630558429300410
  0.7232522459981342  0.6984197934368535  0.4369991719029670
  0.7232541177999655  0.1984196213254330  0.4369951242924426
  0.7234129976843874  0.0200166416227963  0.5631933566646689
  0.7234125457716730  0.5200223897522346  0.5631665337138403
  0.2757275920728840  0.0178977771333804  0.5735695845206116
  0.2751844876374486  0.5200421654539906  0.5666675395206405
  0.2760376771471865  0.1967517603250850  0.4193051157473621
  0.2753460143019719  0.6981050781362631  0.4389109325002816
  0.2758420641620006  0.2993112020389183  0.5794957695591260
  0.2754779743198683  0.8007525058037529  0.5613229940709896
  0.2752953211296867  0.9804155440776435  0.4396191668864257
  0.2760822766946556  0.4815610230138773  0.4175943301211415
  0.3113835938135199  0.3603021492726058  0.4993752245932025

             NaN             NaN             NaN
             NaN             NaN             NaN
             NaN             NaN             NaN
             NaN             NaN             NaN
             NaN             NaN             NaN
             NaN             NaN             NaN
             NaN             NaN             NaN
             NaN             NaN             NaN
             NaN             NaN             NaN
             NaN             NaN             NaN
             NaN             NaN             NaN
             NaN             NaN             NaN
             NaN             NaN             NaN
             NaN             NaN             NaN
             NaN             NaN             NaN
             NaN             NaN             NaN
             NaN             NaN             NaN
             NaN             NaN             NaN
             NaN             NaN             NaN
             NaN             NaN             NaN
             NaN             NaN             NaN
             NaN             NaN             NaN
             NaN             NaN             NaN
             NaN             NaN             NaN
             NaN             NaN             NaN
             NaN             NaN             NaN
             NaN             NaN             NaN
             NaN             NaN             NaN
             NaN             NaN             NaN
             NaN             NaN             NaN
             NaN             NaN             NaN
             NaN             NaN             NaN
             NaN             NaN             NaN
             NaN             NaN             NaN
             NaN             NaN             NaN
             NaN             NaN             NaN
             NaN             NaN             NaN
             NaN             NaN             NaN
             NaN             NaN             NaN
             NaN             NaN             NaN
             NaN             NaN             NaN
             NaN             NaN             NaN
             NaN             NaN             NaN
             NaN             NaN             NaN
             NaN             NaN             NaN
             NaN             NaN             NaN
             NaN             NaN             NaN
             NaN             NaN             NaN
             NaN             NaN             NaN
             NaN             NaN             NaN
             NaN             NaN             NaN
             NaN             NaN             NaN
             NaN             NaN             NaN
             NaN             NaN             NaN
             NaN             NaN             NaN
             NaN             NaN             NaN
             NaN             NaN             NaN
             NaN             NaN             NaN
             NaN             NaN             NaN
             NaN             NaN             NaN
             NaN             NaN             NaN
             NaN             NaN             NaN
             NaN             NaN             NaN
             NaN             NaN             NaN
             NaN             NaN             NaN
             NaN             NaN             NaN
             NaN             NaN             NaN
             NaN             NaN             NaN
             NaN             NaN             NaN
             NaN             NaN             NaN
             NaN             NaN             NaN
             NaN             NaN             NaN
             NaN             NaN             NaN
             NaN             NaN             NaN
             NaN             NaN             NaN
             NaN             NaN             NaN
             NaN             NaN             NaN
             NaN             NaN             NaN
             NaN             NaN             NaN
             NaN             NaN             NaN
             NaN             NaN             NaN
             NaN             NaN             NaN
             NaN             NaN             NaN
             NaN             NaN             NaN
             NaN             NaN             NaN
             NaN             NaN             NaN
             NaN             NaN             NaN
             NaN             NaN             NaN
             NaN             NaN             NaN
             NaN             NaN             NaN
             NaN             NaN             NaN
             NaN             NaN             NaN
             NaN             NaN             NaN
             NaN             NaN             NaN
             NaN             NaN             NaN
             NaN             NaN             NaN
             NaN             NaN             NaN
             NaN             NaN             NaN
             NaN             NaN             NaN
             NaN             NaN             NaN
             NaN             NaN             NaN
             NaN             NaN             NaN
             NaN             NaN             NaN
             NaN             NaN             NaN
             NaN             NaN             NaN
             NaN             NaN             NaN
             NaN             NaN             NaN
             NaN             NaN             NaN
             NaN             NaN             NaN
             NaN             NaN             NaN
             NaN             NaN             NaN
             NaN             NaN             NaN
             NaN             NaN             NaN
             NaN             NaN             NaN
             NaN             NaN             NaN
             NaN             NaN             NaN
             NaN             NaN             NaN
             NaN             NaN             NaN
             NaN             NaN             NaN
             NaN             NaN             NaN
             NaN             NaN             NaN
