C    H    Li                            
   1.0000000000000000     
    37.2234382628999967    0.0000000000000000    0.0000000000000000
     0.0000000000000000    8.5469398498999993    0.0000000000000000
     0.0000000000000000    0.0000000000000000   27.8030738831000015
   C    H    Li
   104    16     1
Direct
  0.4664948698198179  0.0049091779571428  0.4364491636410693
  0.4664881370122662  0.5048517668320303  0.4365678935332686
  0.4333450407315543  0.2548795970103944  0.4367891764610276
  0.4333463781048490  0.7548230803013117  0.4364511980588059
  0.3337880398501761  0.0042897039209928  0.4359878485745893
  0.3337679369140891  0.5049820717148554  0.4352175888429932
  0.3013828914894654  0.2578024997287002  0.4311384490119433
  0.3013804467023130  0.7582355576706175  0.4373238230863492
  0.4002345589006881  0.0051654529319774  0.4364926355389250
  0.4002067600056419  0.5051350460148689  0.4367801793719982
  0.3669141206329234  0.2547975907234262  0.4363203177283675
  0.3669638432017897  0.7548824040599332  0.4363358999870938
  0.4665330441928500  0.9953728538628466  0.5634408695550396
  0.4665409137581298  0.4953398429987051  0.5635383527311624
  0.4334024769477019  0.2454040189022333  0.5632826600803975
  0.4333957484790337  0.7454364831110089  0.5634568053441161
  0.3338060526721779  0.9956063629560423  0.5641904162334688
  0.3338817605644535  0.4958568369881248  0.5648903099277565
  0.3014570489757472  0.2419606969706745  0.5682221737501857
  0.3014316571823338  0.7421926258381201  0.5635956623632347
  0.4002625033897891  0.9951482151630173  0.5631705271932932
  0.4002974165585232  0.4950755085761375  0.5635699747609723
  0.3669870892369537  0.2454795890019529  0.5638271691675955
  0.3670021263661013  0.7453975949419424  0.5635796147825041
  0.4664851549048301  0.1716910182244308  0.4365491470542468
  0.4664869736438281  0.6716446271079136  0.4364443746200901
  0.4333394522490834  0.4216711816192013  0.4367876028366610
  0.4333428422482886  0.9217416661365372  0.4364389841948247
  0.3337851974449205  0.1716917969521292  0.4350627266656236
  0.3337960113993030  0.6723757323317564  0.4360959528579273
  0.3013278116177131  0.4190930460001387  0.4312024511681596
  0.3013719590566020  0.9183724678783116  0.4371802627053367
  0.4002024440515426  0.1715267989140718  0.4367346662194866
  0.4002250387671396  0.6714923546562017  0.4364897053139142
  0.3668974579905786  0.4218605998652016  0.4363471925540518
  0.3669571196212904  0.9217779870139855  0.4363034147165777
  0.3013928887827665  0.0811179872002881  0.5671782534335771
  0.3014703327000837  0.5820027479622564  0.5646134862549247
  0.4665358609130757  0.3285666135862610  0.5634806321308109
  0.4665333104108600  0.8285935038158410  0.5635194553286518
  0.3669641620518623  0.0784901226745076  0.5635483374267993
  0.3670181726590954  0.5784948599443839  0.5638987313777379
  0.3338882109295849  0.3284620248813950  0.5654601086102438
  0.3338383783369306  0.8279666551150120  0.5637028202271682
  0.4333931240831417  0.0785613044783856  0.5632526943446120
  0.4334074734717849  0.5785283283995959  0.5635111884688302
  0.4002808184698458  0.3288102759623037  0.5634042451463702
  0.4002732769094022  0.8287904371022994  0.5633569432199252
  0.5328765009717601  0.9952466368666290  0.5637899626413461
  0.5328783633577039  0.4952424915727625  0.5638061767053245
  0.5659935159821533  0.7452734157505460  0.5638912830270930
  0.5659939790412265  0.2452708125597619  0.5638886277809556
  0.6654980087960447  0.9955062319346452  0.5638215785796089
  0.6654983464144915  0.4955083171638592  0.5638200773825525
  0.6979077930687830  0.7416609499024212  0.5635196592172222
  0.6979074028076622  0.2416599957509365  0.5635301642381843
  0.4997020990668813  0.7451705496392703  0.5636556695381388
  0.4997060811151832  0.2451609258822208  0.5636103727763233
  0.5991116609935671  0.9947826060798504  0.5639403764425450
  0.5991121652487099  0.4947865667779970  0.5639412805835688
  0.6323992415795581  0.7451213997339493  0.5639564030117544
  0.6323989375250034  0.2451207081073520  0.5639593123790544
  0.5328321609648048  0.0049860627137250  0.4361944572684782
  0.5328308370394341  0.5049752272719478  0.4362167078392423
  0.5659521111612636  0.7549253410472514  0.4361087341631927
  0.5659517114122429  0.2549272658618881  0.4361153072012256
  0.6654543064870017  0.0046619444363746  0.4361768158522220
  0.6654543410080629  0.5046639899743226  0.4361764039760820
  0.6978631615255210  0.7585091765594452  0.4364800848014221
  0.6978626574540285  0.2585081973287839  0.4364781789495054
  0.4996557628751092  0.7550385770096909  0.4363272359719786
  0.4996577632995202  0.2550579068352380  0.4364098059368181
  0.5990656850077203  0.0053919678418413  0.4360587521311871
  0.5990657569087422  0.5053939682597260  0.4360616180685779
  0.6323544202660026  0.7550644858885160  0.4360419618676953
  0.6323537837347246  0.2550627593934693  0.4360410975966393
  0.5328810716312812  0.8285023534364848  0.5638009899106874
  0.5328819557677379  0.3284921557062303  0.5637986768411458
  0.5659971205670128  0.5783082984115596  0.5639104321771570
  0.5659947998189411  0.0783055602410198  0.5639042630514896
  0.6654909346410447  0.8276899321604244  0.5638398031160818
  0.6654907292115811  0.3276898088463930  0.5638446677270614
  0.6979261748148327  0.5814774111559921  0.5635668253193070
  0.6979258310034431  0.0814761362082199  0.5635756752753367
  0.4997098039716524  0.5786759219155994  0.5636864199117388
  0.4997046153729575  0.0786880835694691  0.5636265616525584
  0.5991150454660688  0.8286197213400380  0.5639640662424072
  0.5991148507822974  0.3286179726466007  0.5639650856899485
  0.6324049865668698  0.5781986380966159  0.5639499477782102
  0.6324041344968443  0.0781960355754878  0.5639514395189806
  0.6978801346807159  0.9187102342174264  0.4364267175213274
  0.6978796510781597  0.4187113649629125  0.4364244956645604
  0.4996556278727632  0.9215811434513858  0.4363004467421870
  0.4996563961855754  0.4215485209954698  0.4363913201321898
  0.5328317534068236  0.6717174526684286  0.4361986252034227
  0.5328338706433703  0.1717233230045981  0.4362094946600390
  0.6323578617705440  0.9219787357934174  0.4360471092395561
  0.6323568843649764  0.4219820513834411  0.4360472957676728
  0.6654482190474302  0.6724986482919020  0.4361607456645201
  0.6654477423508451  0.1724970552348499  0.4361595214823570
  0.5659513794739713  0.9219014632631503  0.4360895087033603
  0.5659498383958045  0.4219015518837553  0.4361008746000161
  0.5990675430138325  0.6715788057318192  0.4360365972868789
  0.5990679914363038  0.1715775763319137  0.4360354229807244
  0.7236061829384848  0.9792169769241333  0.4367751567661320
  0.7236058200644363  0.4792166557890905  0.4367722051265941
  0.7236219361434217  0.8022519008001433  0.5631086598880195
  0.7236217071382083  0.3022505538133930  0.5631243170046782
  0.7235772217769846  0.6979125182375951  0.4368931192190806
  0.7235768510240295  0.1979129741231932  0.4368909049339836
  0.7236501455906073  0.0209564684887736  0.5632350279103873
  0.7236504260379213  0.5209574937995862  0.5632218397249507
  0.2758222321926128  0.0200938299127882  0.5704420002308525
  0.2755126747761766  0.5224837421792913  0.5657486376846227
  0.2761982408168461  0.1957025353101522  0.4240379339612925
  0.2756523469438026  0.6978116123201018  0.4389942943906322
  0.2760705258460044  0.3022960677623940  0.5757539976153231
  0.2756927385648420  0.8025678054012666  0.5627711898619984
  0.2755943973883671  0.9785773782513517  0.4386271009501924
  0.2760876054801236  0.4809654090131286  0.4246930472198213
  0.2564175421910330  0.3179573144710472  0.4976906096249079

             NaN             NaN             NaN
             NaN             NaN             NaN
             NaN             NaN             NaN
             NaN             NaN             NaN
             NaN             NaN             NaN
             NaN             NaN             NaN
             NaN             NaN             NaN
             NaN             NaN             NaN
             NaN             NaN             NaN
             NaN             NaN             NaN
             NaN             NaN             NaN
             NaN             NaN             NaN
             NaN             NaN             NaN
             NaN             NaN             NaN
             NaN             NaN             NaN
             NaN             NaN             NaN
             NaN             NaN             NaN
             NaN             NaN             NaN
             NaN             NaN             NaN
             NaN             NaN             NaN
             NaN             NaN             NaN
             NaN             NaN             NaN
             NaN             NaN             NaN
             NaN             NaN             NaN
             NaN             NaN             NaN
             NaN             NaN             NaN
             NaN             NaN             NaN
             NaN             NaN             NaN
             NaN             NaN             NaN
             NaN             NaN             NaN
             NaN             NaN             NaN
             NaN             NaN             NaN
             NaN             NaN             NaN
             NaN             NaN             NaN
             NaN             NaN             NaN
             NaN             NaN             NaN
             NaN             NaN             NaN
             NaN             NaN             NaN
             NaN             NaN             NaN
             NaN             NaN             NaN
             NaN             NaN             NaN
             NaN             NaN             NaN
             NaN             NaN             NaN
             NaN             NaN             NaN
             NaN             NaN             NaN
             NaN             NaN             NaN
             NaN             NaN             NaN
             NaN             NaN             NaN
             NaN             NaN             NaN
             NaN             NaN             NaN
             NaN             NaN             NaN
             NaN             NaN             NaN
             NaN             NaN             NaN
             NaN             NaN             NaN
             NaN             NaN             NaN
             NaN             NaN             NaN
             NaN             NaN             NaN
             NaN             NaN             NaN
             NaN             NaN             NaN
             NaN             NaN             NaN
             NaN             NaN             NaN
             NaN             NaN             NaN
             NaN             NaN             NaN
             NaN             NaN             NaN
             NaN             NaN             NaN
             NaN             NaN             NaN
             NaN             NaN             NaN
             NaN             NaN             NaN
             NaN             NaN             NaN
             NaN             NaN             NaN
             NaN             NaN             NaN
             NaN             NaN             NaN
             NaN             NaN             NaN
             NaN             NaN             NaN
             NaN             NaN             NaN
             NaN             NaN             NaN
             NaN             NaN             NaN
             NaN             NaN             NaN
             NaN             NaN             NaN
             NaN             NaN             NaN
             NaN             NaN             NaN
             NaN             NaN             NaN
             NaN             NaN             NaN
             NaN             NaN             NaN
             NaN             NaN             NaN
             NaN             NaN             NaN
             NaN             NaN             NaN
             NaN             NaN             NaN
             NaN             NaN             NaN
             NaN             NaN             NaN
             NaN             NaN             NaN
             NaN             NaN             NaN
             NaN             NaN             NaN
             NaN             NaN             NaN
             NaN             NaN             NaN
             NaN             NaN             NaN
             NaN             NaN             NaN
             NaN             NaN             NaN
             NaN             NaN             NaN
             NaN             NaN             NaN
             NaN             NaN             NaN
             NaN             NaN             NaN
             NaN             NaN             NaN
             NaN             NaN             NaN
             NaN             NaN             NaN
             NaN             NaN             NaN
             NaN             NaN             NaN
             NaN             NaN             NaN
             NaN             NaN             NaN
             NaN             NaN             NaN
             NaN             NaN             NaN
             NaN             NaN             NaN
             NaN             NaN             NaN
             NaN             NaN             NaN
             NaN             NaN             NaN
             NaN             NaN             NaN
             NaN             NaN             NaN
             NaN             NaN             NaN
             NaN             NaN             NaN
             NaN             NaN             NaN
             NaN             NaN             NaN
