C    H    Li                            
   1.0000000000000000     
    37.2234382628999967    0.0000000000000000    0.0000000000000000
     0.0000000000000000    8.5469398498999993    0.0000000000000000
     0.0000000000000000    0.0000000000000000   27.8030738831000015
   C    H    Li
   104    16     1
Direct
  0.4665766526413764  0.0045174202289945  0.4363794253491300
  0.4665694533696199  0.5044651687173018  0.4364777563515105
  0.4334291390769704  0.2544849467728835  0.4366665883562598
  0.4334330373109459  0.7544322591743223  0.4363588808843769
  0.3338775995221495  0.0038877370744971  0.4358975650087287
  0.3338541483491822  0.5045533506934674  0.4352959266758300
  0.3014482952455826  0.2574614117120879  0.4317484686030801
  0.3014735092280602  0.7578412369801726  0.4369381519234873
  0.4003187005163846  0.0047878536211164  0.4363920392115477
  0.4002919623567027  0.5047466600857324  0.4366520139285596
  0.3669930034170765  0.2543943860507573  0.4362944317232171
  0.3670497290360378  0.7544739306276780  0.4362019879349132
  0.4666055993524548  0.9957053114840019  0.5635363631584132
  0.4666111666600440  0.4956757199798506  0.5636260629544749
  0.4334769269011292  0.2457523142147184  0.5634170356860285
  0.4334709832158542  0.7457754250496044  0.5635633547539669
  0.3338930700445512  0.9959902152167792  0.5641574682324081
  0.3339559875054320  0.4962186212964111  0.5649232619838803
  0.3015347864068435  0.2422812774413640  0.5677912099634032
  0.3015093334455382  0.7425594554020954  0.5637706349207320
  0.4003411419309242  0.9954842014760956  0.5633085439992985
  0.4003697763090937  0.4954173754208167  0.5636841365259218
  0.3670598060154979  0.2458440805467605  0.5638995470740755
  0.3670754319832460  0.7457635875055392  0.5636813488872182
  0.4665658981656712  0.1713027983093063  0.4364664506639604
  0.4665687284725323  0.6712579137513434  0.4363702274235700
  0.4334245610084091  0.4212920618594598  0.4366576722582522
  0.4334291147597806  0.9213550389088233  0.4363510937914379
  0.3338674207134713  0.1713275750307563  0.4351901786085053
  0.3338877564504558  0.6719709667873247  0.4359648286445988
  0.3013919849522895  0.4186146032710707  0.4317822964345953
  0.3014596579492693  0.9179598083526302  0.4368286793518841
  0.4002875135331279  0.1711209840017808  0.4366243585456118
  0.4003118407974118  0.6710722711816931  0.4363767412144253
  0.3669761744548369  0.4214653008189732  0.4363083885887244
  0.3670410733968338  0.9213787507901422  0.4361816332507132
  0.3014634453984603  0.0815403893956540  0.5667686975475735
  0.3015470938480151  0.5823892098840739  0.5647495248837600
  0.4666060501434821  0.3288974799283170  0.5635778361530169
  0.4666039706989949  0.8289237640520237  0.5636076828579815
  0.3670401441851645  0.0788482329401828  0.5636261347408101
  0.3670878391909529  0.5788540506432821  0.5639942322907786
  0.3339589869235778  0.3287884598080175  0.5653806886607529
  0.3339185335907867  0.8283353372969204  0.5637769691104638
  0.4334702338918600  0.0788943217911810  0.5633867171595756
  0.4334808346538950  0.5788623582657668  0.5636169989996538
  0.4003540489849706  0.3291789142043147  0.5635358976387015
  0.4003475392546550  0.8291607187620733  0.5634726039380389
  0.5329495449600338  0.9955835438672592  0.5638104113253554
  0.5329505295306473  0.4955816075646088  0.5638254591884914
  0.5660661068155138  0.7456114564477206  0.5638927562312932
  0.5660662254186966  0.2456095408231073  0.5638905205180134
  0.6655679685690187  0.9958355892397266  0.5638187162815537
  0.6655683439374230  0.4958374593648058  0.5638163979395386
  0.6979794185530791  0.7419957458078952  0.5635380585331434
  0.6979788085026850  0.2419949544454549  0.5635444663810306
  0.4997744247641249  0.7454987702947546  0.5637108484828023
  0.4997778200820187  0.2454862717257529  0.5636722636014141
  0.5991836513707807  0.9951132420107702  0.5639259990407500
  0.5991840405388257  0.4951166864393415  0.5639270955983591
  0.6324706706759148  0.7454533945110863  0.5639436634243592
  0.6324701094588365  0.2454535545446890  0.5639444247790747
  0.5329172078995362  0.0045783252117025  0.4361828713841104
  0.5329162531856492  0.5045649095922354  0.4362008595775371
  0.5660376524997659  0.7545211644507943  0.4361124408554714
  0.5660369439245486  0.2545221992809394  0.4361196864882231
  0.6655421157554806  0.0042656055495813  0.4361854994574408
  0.6655420505594548  0.5042676345117482  0.4361849741585423
  0.6979506348888437  0.7581070687486405  0.4364640143629831
  0.6979500478814906  0.2581068818189250  0.4364636298001951
  0.4997401616215275  0.7546465363895717  0.4362846411631606
  0.4997409098475031  0.2546669185032762  0.4363608595652932
  0.5991539140365513  0.0049982957254812  0.4360764866197673
  0.5991538494513098  0.5050001815359406  0.4360786485366015
  0.6324419411498509  0.7546676358304110  0.4360570109418497
  0.6324408785152237  0.2546663359063890  0.4360570082186234
  0.5329545245366774  0.8288356773618116  0.5638208511073349
  0.5329549195606613  0.3288271740732974  0.5638201895575427
  0.5660682572696183  0.5786457189741433  0.5639095258017204
  0.5660664214550554  0.0786432392219754  0.5639033915823997
  0.6655620706941889  0.8280212360083087  0.5638377571665553
  0.6655616465213049  0.3280216502551384  0.5638387770774366
  0.6979957754622760  0.5818105997705048  0.5635858208982838
  0.6979952554150195  0.0818101904165848  0.5635931709580455
  0.4997808047992636  0.5790169947541960  0.5637392990166953
  0.4997768438366385  0.0790247583818622  0.5636852887552395
  0.5991879184877370  0.8289577983859647  0.5639520641157396
  0.5991875413597847  0.3289567876863357  0.5639527249536402
  0.6324765660850440  0.5785273317637788  0.5639374374075504
  0.6324757839303391  0.0785254114511103  0.5639384538750801
  0.6979669337492523  0.9183014459678299  0.4364182517153128
  0.6979663557785445  0.4183021034729111  0.4364170166795257
  0.4997390923977355  0.9211728016137873  0.4362593169969419
  0.4997390980233150  0.4211447508424886  0.4363389059635802
  0.5329172945303480  0.6713107473613817  0.4361837339241261
  0.5329184456853324  0.1713189034942052  0.4361963639296471
  0.6324463080308352  0.9215859605347736  0.4360638653668653
  0.6324452672700882  0.4215887749460335  0.4360642143640566
  0.6655343997661696  0.6720961527366892  0.4361648898497181
  0.6655340956215992  0.1720951948897186  0.4361649269547043
  0.5660372739842637  0.9214990129418139  0.4360968187299170
  0.5660359064808709  0.4214977793629596  0.4361068710032290
  0.5991540855656047  0.6711776427962581  0.4360509661596600
  0.5991542750400850  0.1711762624884439  0.4360507640062382
  0.7236946244911442  0.9787965570875878  0.4367398156822070
  0.7236941607355106  0.4787966696159403  0.4367383676598688
  0.7236930332465940  0.8025924412040831  0.5631484707347717
  0.7236926063520408  0.3025914862972647  0.5631602952548048
  0.7236640611677035  0.6975045230724111  0.4368552811289868
  0.7236636358471160  0.1975050189187301  0.4368553044513330
  0.7237211242245768  0.0213043512690850  0.5632799308698406
  0.7237216121327796  0.5213048304621669  0.5632668548599490
  0.2758569288626288  0.0205905929544105  0.5696002385897480
  0.2755967248658833  0.5228577814443907  0.5659411243435586
  0.2761591916624460  0.1953446816433224  0.4253824540066902
  0.2757289180352329  0.6974878968214651  0.4383189856033653
  0.2760545842515367  0.3026741100213736  0.5746627194491358
  0.2757664813237440  0.8029219519812164  0.5630842047171953
  0.2756710452055081  0.9780912731390254  0.4380124335913554
  0.2760643583741656  0.4804593515337590  0.4258421516930715
  0.2539406804727979  0.3212320008941667  0.4976645246487527

             NaN             NaN             NaN
             NaN             NaN             NaN
             NaN             NaN             NaN
             NaN             NaN             NaN
             NaN             NaN             NaN
             NaN             NaN             NaN
             NaN             NaN             NaN
             NaN             NaN             NaN
             NaN             NaN             NaN
             NaN             NaN             NaN
             NaN             NaN             NaN
             NaN             NaN             NaN
             NaN             NaN             NaN
             NaN             NaN             NaN
             NaN             NaN             NaN
             NaN             NaN             NaN
             NaN             NaN             NaN
             NaN             NaN             NaN
             NaN             NaN             NaN
             NaN             NaN             NaN
             NaN             NaN             NaN
             NaN             NaN             NaN
             NaN             NaN             NaN
             NaN             NaN             NaN
             NaN             NaN             NaN
             NaN             NaN             NaN
             NaN             NaN             NaN
             NaN             NaN             NaN
             NaN             NaN             NaN
             NaN             NaN             NaN
             NaN             NaN             NaN
             NaN             NaN             NaN
             NaN             NaN             NaN
             NaN             NaN             NaN
             NaN             NaN             NaN
             NaN             NaN             NaN
             NaN             NaN             NaN
             NaN             NaN             NaN
             NaN             NaN             NaN
             NaN             NaN             NaN
             NaN             NaN             NaN
             NaN             NaN             NaN
             NaN             NaN             NaN
             NaN             NaN             NaN
             NaN             NaN             NaN
             NaN             NaN             NaN
             NaN             NaN             NaN
             NaN             NaN             NaN
             NaN             NaN             NaN
             NaN             NaN             NaN
             NaN             NaN             NaN
             NaN             NaN             NaN
             NaN             NaN             NaN
             NaN             NaN             NaN
             NaN             NaN             NaN
             NaN             NaN             NaN
             NaN             NaN             NaN
             NaN             NaN             NaN
             NaN             NaN             NaN
             NaN             NaN             NaN
             NaN             NaN             NaN
             NaN             NaN             NaN
             NaN             NaN             NaN
             NaN             NaN             NaN
             NaN             NaN             NaN
             NaN             NaN             NaN
             NaN             NaN             NaN
             NaN             NaN             NaN
             NaN             NaN             NaN
             NaN             NaN             NaN
             NaN             NaN             NaN
             NaN             NaN             NaN
             NaN             NaN             NaN
             NaN             NaN             NaN
             NaN             NaN             NaN
             NaN             NaN             NaN
             NaN             NaN             NaN
             NaN             NaN             NaN
             NaN             NaN             NaN
             NaN             NaN             NaN
             NaN             NaN             NaN
             NaN             NaN             NaN
             NaN             NaN             NaN
             NaN             NaN             NaN
             NaN             NaN             NaN
             NaN             NaN             NaN
             NaN             NaN             NaN
             NaN             NaN             NaN
             NaN             NaN             NaN
             NaN             NaN             NaN
             NaN             NaN             NaN
             NaN             NaN             NaN
             NaN             NaN             NaN
             NaN             NaN             NaN
             NaN             NaN             NaN
             NaN             NaN             NaN
             NaN             NaN             NaN
             NaN             NaN             NaN
             NaN             NaN             NaN
             NaN             NaN             NaN
             NaN             NaN             NaN
             NaN             NaN             NaN
             NaN             NaN             NaN
             NaN             NaN             NaN
             NaN             NaN             NaN
             NaN             NaN             NaN
             NaN             NaN             NaN
             NaN             NaN             NaN
             NaN             NaN             NaN
             NaN             NaN             NaN
             NaN             NaN             NaN
             NaN             NaN             NaN
             NaN             NaN             NaN
             NaN             NaN             NaN
             NaN             NaN             NaN
             NaN             NaN             NaN
             NaN             NaN             NaN
             NaN             NaN             NaN
             NaN             NaN             NaN
             NaN             NaN             NaN
             NaN             NaN             NaN
