C    Li                                 
   1.0000000000000000     
    14.8037481308000007    0.0000000000000000    0.0000000000000000
    -7.4018740654000004   12.8204219525000003    0.0000000000000000
     0.0000000000000000    0.0000000000000000   27.8030738831000015
   C    Li
   143     1
Direct
  0.0007212905972151  0.0018045176633444  0.4360460567683047
  0.0007355070714145  0.5018447607583909  0.4362009963447859
  0.5007231738092359  0.0018164306461419  0.4357490926668010
  0.5009174214529167  0.5021372718880733  0.4331941143654315
  0.0007003930952135  0.1684725454920408  0.4361742326376292
  0.0007708443138555  0.6685172900624606  0.4360624414170174
  0.5007278277277794  0.1683806855569860  0.4361974070867831
  0.5007343474833356  0.6687738215632069  0.4340543057676435
  0.0006982024998661  0.3351706755158360  0.4362325384041575
  0.0007602928098231  0.8351784485575836  0.4359643173663447
  0.5007288052675383  0.3348720682754546  0.4353868942384757
  0.5007162637858483  0.8352558924091172  0.4349884727280099
  0.1673541836712174  0.0017539334826043  0.4361555173262441
  0.1672995819170160  0.5018595467053225  0.4356854310086806
  0.6674123698093788  0.0018702264300242  0.4355843096928002
  0.6678066384473459  0.5019963829511991  0.4352124021076467
  0.1672747978090218  0.1683550644672264  0.4361640045841986
  0.1673736164152066  0.6685139172473031  0.4357425821531369
  0.6674134100132240  0.1684856900708978  0.4361812421901654
  0.6676638803377466  0.6687807670456677  0.4344752912845349
  0.1672723376838272  0.3351180956326091  0.4358277184740857
  0.1673939830824418  0.8351505915251751  0.4359229607305241
  0.6674843807696772  0.3351478864464585  0.4361943514399467
  0.6674536256073019  0.8352822174250309  0.4349066928709244
  0.3340431161009782  0.0017592370137715  0.4360235015200358
  0.3337826953462131  0.5019787589955661  0.4345775452791423
  0.8340844280034310  0.0018635149715770  0.4357452102404419
  0.8341876891037162  0.5018749354538913  0.4361946050072811
  0.3339423416591791  0.1682417579940705  0.4360936532199037
  0.3339934816008716  0.6685761553952989  0.4349510958589759
  0.8340713880873857  0.1685095404820056  0.4361332783528482
  0.8342000829750543  0.6685846911058230  0.4356670474915514
  0.3337571828474024  0.3348312556679087  0.4351568632532362
  0.3340540905466981  0.8351835884906056  0.4354982890689363
  0.8341002130916806  0.3351796842678570  0.4363942086920541
  0.8341650557741280  0.8352620870303810  0.4355037009377345
  0.9991036759284226  0.9982860096956433  0.5638151472225519
  0.9997358914463709  0.4990181001319275  0.5645371297383389
  0.4997894917100563  0.9983866489823341  0.5629299072427989
  0.0008066358931301  0.1665781101619311  0.5644642327680031
  0.9982733140418403  0.6645721326031475  0.5642360136304839
  0.4989802990043818  0.1633808070232653  0.5665869429919944
  0.5036538390661406  0.6681276360452807  0.5643388142329312
  0.0009329071444770  0.3331761614752092  0.5645214671993615
  0.9981671371257174  0.8307786323490440  0.5637400931217474
  0.4975171526739606  0.3277665775702177  0.5727599290630850
  0.5009116550370321  0.8330634768173546  0.5621000961761886
  0.1650682569496958  0.9966911582059205  0.5645261064238660
  0.1697866944291945  0.4990041928262853  0.5647760948120849
  0.6673099809329818  0.0009151930492904  0.5624366058594568
  0.6567826234361627  0.4984727578536076  0.5685223167282355
  0.1651452552602183  0.1635002645627146  0.5665477987478141
  0.1666762508271833  0.6646565434994036  0.5634563945792634
  0.6664661521449666  0.1665553503848395  0.5644210063138435
  0.6644060458170483  0.6676693286069173  0.5653680690912960
  0.1685392609517313  0.3329364053910784  0.5668592939848691
  0.1654260675105968  0.8304733697787493  0.5633394294352887
  0.6650120705670423  0.3327658917044093  0.5677154748055899
  0.6682786675808732  0.8360587270747342  0.5627200794421313
  0.3321547993233788  0.9967106162557355  0.5641504015118965
  0.3421535364473278  0.4988119965614596  0.5673765960794668
  0.8342012651599499  0.0008526188602597  0.5629287822315764
  0.8295600234870087  0.4988457364761210  0.5659766409629382
  0.3313494318589273  0.1620746635904646  0.5683811388292055
  0.3351061537867925  0.6650777789023214  0.5633246195542518
  0.8339137969544277  0.1671186345536806  0.5636149805879977
  0.8301450846215794  0.6648321938114772  0.5650476870084666
  0.3312150495839022  0.3280954046373050  0.5723194133795024
  0.3330705947542723  0.8309249314706648  0.5624768210391520
  0.8329133297338630  0.3331391342761942  0.5649038356585486
  0.8324264731996924  0.8327931510411974  0.5635173371564659
  0.0562078720932751  0.1128814897456508  0.4361630869900997
  0.0562844815364601  0.6129369726495105  0.4360301389095931
  0.5563125066545226  0.1128962925174346  0.4360788922665658
  0.5565874676143285  0.6135370236720806  0.4336677230363232
  0.0562134694048410  0.2795810833541482  0.4361424268244640
  0.0563009466969951  0.7796126771858364  0.4359822373523194
  0.5563877808988610  0.2794678504408657  0.4360754620269711
  0.5563400213032847  0.7798014915457604  0.4345926057287110
  0.0562302020522301  0.4462657121284225  0.4360930185190438
  0.0562633931133232  0.9462591077532553  0.4360557115570911
  0.5565697267593225  0.4462165388804277  0.4344991997877456
  0.5563051067985582  0.9463248651575015  0.4354083864621133
  0.2228617547508661  0.1128308035384062  0.4361688554620369
  0.2229050441301869  0.6129537835129822  0.4354434753981243
  0.7229746119014511  0.1129536446749344  0.4359817220505658
  0.7231391192853266  0.6130884588037649  0.4350538895406195
  0.2226788777216215  0.2794319192400075  0.4358291439708740
  0.2229487085609072  0.7796130780306023  0.4356932498790890
  0.7229957144904381  0.2795957349610226  0.4363447154420152
  0.7230830030532613  0.7798135146043166  0.4349409923221703
  0.2227731616089546  0.4462618562311659  0.4354036032880745
  0.2229423348556707  0.9462418923573584  0.4360244749729625
  0.7231116069363052  0.4462888557389321  0.4359746555153309
  0.7229839422631669  0.9463409115668576  0.4353946084562657
  0.3896156895441151  0.1128387855926619  0.4361418472191146
  0.3895455926588124  0.6130754741070511  0.4343656148043053
  0.8896074383768277  0.1129507373310400  0.4360345490407890
  0.8896768322510837  0.6129667051904069  0.4360202115390087
  0.3894833097922222  0.2793162817829916  0.4355109767366248
  0.3896192585114621  0.7796708018880787  0.4350743597140646
  0.8896117652277997  0.2796045365992707  0.4363052454107096
  0.8896746581486965  0.7796781411009734  0.4357058162607280
  0.3892721497319283  0.4461998455536350  0.4341074592741597
  0.3896364448552336  0.9462674922751928  0.4357340676798053
  0.8896617520971477  0.4462728693451738  0.4363402951247766
  0.8896464918210185  0.9463253538625699  0.4357617108035809
  0.1098260497593226  0.0527168661995166  0.5648022080829548
  0.1121037910005094  0.5539078285398638  0.5641438823789968
  0.6110383590270192  0.0554797184824366  0.5630901469556361
  0.6028164024345835  0.5588164542777866  0.5673659745091223
  0.1116651199944518  0.2212522159628084  0.5661111907537145
  0.1099299231193932  0.7195423707492629  0.5635393269809805
  0.6102140830480980  0.2211273338767306  0.5663979803244493
  0.6137389981127448  0.7270881918939770  0.5640361206101806
  0.1125403892343325  0.3882028992406045  0.5652453744630166
  0.1094474087437283  0.8857616789999646  0.5636878959113317
  0.6084940487861008  0.3871298207984813  0.5702682445999321
  0.6119398924097140  0.8903899184021943  0.5621226237010405
  0.2759620953543657  0.0513908059378103  0.5655132482330184
  0.2828394234356042  0.5541736647653474  0.5649318465187002
  0.7784941843317377  0.0563162574940993  0.5628938712073478
  0.7715049872965658  0.5539099262105650  0.5664611471605763
  0.2794740590536089  0.3873974885454568  0.5693129917115297
  0.2767321968707457  0.8858117916724080  0.5630740364072904
  0.7762654133149717  0.3880839120358579  0.5661379899885164
  0.7789490775460950  0.8903088715940691  0.5628918560754484
  0.4434572584169673  0.0526996694029704  0.5643287234458350
  0.4564085245096577  0.5594079655003078  0.5664133716082633
  0.9450571730340529  0.0554415306600927  0.5636712065009655
  0.9421536670377542  0.5538187496999181  0.5648667966574613
  0.4421849545491350  0.2167385305095681  0.5694731099291537
  0.4459395488293980  0.7219034173919211  0.5629236143090611
  0.9451447181342066  0.2222598320397680  0.5641624237134428
  0.9420634965799286  0.7197336969135717  0.5642530334995289
  0.4380472546435719  0.3751461016608796  0.5755612983590802
  0.4443387443455406  0.8873381108550337  0.5622197972894306
  0.9444571265865058  0.3882657351518338  0.5645697825820303
  0.9433318188394841  0.8871680250504408  0.5635864279619244
  0.2753379114720673  0.2169062740782066  0.5692702986131578
  0.2780482927682991  0.7198873770461277  0.5628343165322000
  0.7778270122093619  0.2222367706405499  0.5642631707870327
  0.7760455581593910  0.7215497695958178  0.5645387881765204
  0.4782321285120812  0.4658350142935582  0.5103312203529120

             NaN             NaN             NaN
             NaN             NaN             NaN
             NaN             NaN             NaN
             NaN             NaN             NaN
             NaN             NaN             NaN
             NaN             NaN             NaN
             NaN             NaN             NaN
             NaN             NaN             NaN
             NaN             NaN             NaN
             NaN             NaN             NaN
             NaN             NaN             NaN
             NaN             NaN             NaN
             NaN             NaN             NaN
             NaN             NaN             NaN
             NaN             NaN             NaN
             NaN             NaN             NaN
             NaN             NaN             NaN
             NaN             NaN             NaN
             NaN             NaN             NaN
             NaN             NaN             NaN
             NaN             NaN             NaN
             NaN             NaN             NaN
             NaN             NaN             NaN
             NaN             NaN             NaN
             NaN             NaN             NaN
             NaN             NaN             NaN
             NaN             NaN             NaN
             NaN             NaN             NaN
             NaN             NaN             NaN
             NaN             NaN             NaN
             NaN             NaN             NaN
             NaN             NaN             NaN
             NaN             NaN             NaN
             NaN             NaN             NaN
             NaN             NaN             NaN
             NaN             NaN             NaN
             NaN             NaN             NaN
             NaN             NaN             NaN
             NaN             NaN             NaN
             NaN             NaN             NaN
             NaN             NaN             NaN
             NaN             NaN             NaN
             NaN             NaN             NaN
             NaN             NaN             NaN
             NaN             NaN             NaN
             NaN             NaN             NaN
             NaN             NaN             NaN
             NaN             NaN             NaN
             NaN             NaN             NaN
             NaN             NaN             NaN
             NaN             NaN             NaN
             NaN             NaN             NaN
             NaN             NaN             NaN
             NaN             NaN             NaN
             NaN             NaN             NaN
             NaN             NaN             NaN
             NaN             NaN             NaN
             NaN             NaN             NaN
             NaN             NaN             NaN
             NaN             NaN             NaN
             NaN             NaN             NaN
             NaN             NaN             NaN
             NaN             NaN             NaN
             NaN             NaN             NaN
             NaN             NaN             NaN
             NaN             NaN             NaN
             NaN             NaN             NaN
             NaN             NaN             NaN
             NaN             NaN             NaN
             NaN             NaN             NaN
             NaN             NaN             NaN
             NaN             NaN             NaN
             NaN             NaN             NaN
             NaN             NaN             NaN
             NaN             NaN             NaN
             NaN             NaN             NaN
             NaN             NaN             NaN
             NaN             NaN             NaN
             NaN             NaN             NaN
             NaN             NaN             NaN
             NaN             NaN             NaN
             NaN             NaN             NaN
             NaN             NaN             NaN
             NaN             NaN             NaN
             NaN             NaN             NaN
             NaN             NaN             NaN
             NaN             NaN             NaN
             NaN             NaN             NaN
             NaN             NaN             NaN
             NaN             NaN             NaN
             NaN             NaN             NaN
             NaN             NaN             NaN
             NaN             NaN             NaN
             NaN             NaN             NaN
             NaN             NaN             NaN
             NaN             NaN             NaN
             NaN             NaN             NaN
             NaN             NaN             NaN
             NaN             NaN             NaN
             NaN             NaN             NaN
             NaN             NaN             NaN
             NaN             NaN             NaN
             NaN             NaN             NaN
             NaN             NaN             NaN
             NaN             NaN             NaN
             NaN             NaN             NaN
             NaN             NaN             NaN
             NaN             NaN             NaN
             NaN             NaN             NaN
             NaN             NaN             NaN
             NaN             NaN             NaN
             NaN             NaN             NaN
             NaN             NaN             NaN
             NaN             NaN             NaN
             NaN             NaN             NaN
             NaN             NaN             NaN
             NaN             NaN             NaN
             NaN             NaN             NaN
             NaN             NaN             NaN
             NaN             NaN             NaN
             NaN             NaN             NaN
             NaN             NaN             NaN
             NaN             NaN             NaN
             NaN             NaN             NaN
             NaN             NaN             NaN
             NaN             NaN             NaN
             NaN             NaN             NaN
             NaN             NaN             NaN
             NaN             NaN             NaN
             NaN             NaN             NaN
             NaN             NaN             NaN
             NaN             NaN             NaN
             NaN             NaN             NaN
             NaN             NaN             NaN
             NaN             NaN             NaN
             NaN             NaN             NaN
             NaN             NaN             NaN
             NaN             NaN             NaN
             NaN             NaN             NaN
             NaN             NaN             NaN
             NaN             NaN             NaN
             NaN             NaN             NaN
             NaN             NaN             NaN
             NaN             NaN             NaN
