C    Li
   1.0000000000000000     
  14.8037481308000007   0.0000000000000000   0.0000000000000000
  -7.4018740654000004  12.8204219525000003   0.0000000000000000
   0.0000000000000000   0.0000000000000000  27.8030738831000015
C    Li
143  1  
Direct
  0.0007290439760297  0.0018167101802931  0.4361203214659500  
  0.0007304741400489  0.5018245708816520  0.4364192939404820  
  0.5007198685784080  0.0018205650988605  0.4358379851583650  
  0.5007854084351280  0.5019065881137480  0.4325180669331490  
  0.0007221408516003  0.1684785478929950  0.4362727236120420  
  0.0007398581564644  0.6684925373553980  0.4362266164853000  
  0.5007249195726901  0.1684345809690480  0.4359150882096260  
  0.5007288158924720  0.6686638212368410  0.4334796873201800  
  0.0007240765865646  0.3351573095082610  0.4363996726382740  
  0.0007383199340651  0.8351642150153680  0.4360572665049250  
  0.5007286901629870  0.3349739359666660  0.4345838984809380  
  0.5007169363816640  0.8351962459275770  0.4349510062836830  
  0.1673835371329280  0.0018080334205308  0.4361376695680260  
  0.1673534887831850  0.5018304029464030  0.4356361471351780  
  0.6673950285115779  0.0018360690252592  0.4357076495540610  
  0.6676199369187900  0.5018845501237690  0.4345910867116200  
  0.1673447646514600  0.1684318968266540  0.4359061667019050  
  0.1673818114162980  0.6684927995754890  0.4359297401862750  
  0.6673935229509670  0.1684773265908180  0.4362443704640030  
  0.6675867448676840  0.6686652798898149  0.4339785375136670  
  0.1673480071870660  0.3351336156520970  0.4355555783934550  
  0.1673922893722520  0.8351568685541650  0.4361018922884700  
  0.6674376965012310  0.3351348245460600  0.4358941729584840  
  0.6674277676864410  0.8352151880509030  0.4347656731865040  
  0.3340510142458370  0.0018025431948132  0.4360193619770030  
  0.3339077411414380  0.5018830200710270  0.4339004678357770  
  0.8340729119301780  0.0018354014044206  0.4358811365958890  
  0.8341135601849961  0.5018339338983960  0.4361479533971670  
  0.3340223662483770  0.1683957351701720  0.4356094966742750  
  0.3340206606446900  0.6685226641382510  0.4347760267206270  
  0.8340677400096510  0.1684913056345320  0.4363526480575710  
  0.8341352619677380  0.6685292657322460  0.4355208758275710  
  0.3338980977068080  0.3349624707758140  0.4343860325391230  
  0.3340513519712620  0.8351656525848981  0.4356409549513240  
  0.8340722643089290  0.3351561233577340  0.4365262776606260  
  0.8341100154710550  0.8351995433436560  0.4354573803894580  
  0.9992712397438200  0.9981032203341020  0.5639549597866920  
  0.9995393641541450  0.4986531819505160  0.5651169395605110  
  0.4998640398582950  0.9985369517532230  0.5630703146160490  
  0.0011038261793672  0.1662944180111270  0.5646958342121520  
  0.9982174381809160  0.6644079865657770  0.5648274373513620  
  0.4993015434831990  0.1630805533063860  0.5655970817851210  
  0.5021818480525509  0.6697021930877090  0.5619785593482550  
  0.0012290607584191  0.3328009601709780  0.5649492792124560  
  0.9981916396682210  0.8306420096366980  0.5640345417192950  
  0.4979271911634130  0.3264259889262320  0.5716497492574319  
  0.5005764736476120  0.8338737314235590  0.5623998839568149  
  0.1651712656465280  0.9967357430364600  0.5642263482892180  
  0.1685220993494670  0.4989539362408380  0.5650572588403410  
  0.6672961463553410  0.0003164121645511  0.5627844514047310  
  0.6590016232045240  0.4975642548580980  0.5691519360716411  
  0.1658302893201480  0.1637453421643610  0.5659600332586480  
  0.1661766181824760  0.6647588386266180  0.5641417846585310  
  0.6667217013627390  0.1659639798395670  0.5642989802960090  
  0.6639715264515050  0.6659245416473850  0.5657096434490820  
  0.1694050174971760  0.3329762966417180  0.5664480569535330  
  0.1652778105185820  0.8305498211673240  0.5637100378467040  
  0.6652874520821330  0.3318894529319390  0.5674314504947020  
  0.6677704434740190  0.8348934191775040  0.5628377739607160  
  0.3322133130727280  0.9968396959186240  0.5638304633082140  
  0.3393600370868910  0.4997748363577020  0.5651334999451270  
  0.8341418648368870  0.0001815014292674  0.5633922419032020  
  0.8303677137030970  0.4983002435379190  0.5664401128670919  
  0.3317403299477700  0.1619492294235770  0.5670047918848981  
  0.3340776347969200  0.6657118146067590  0.5631241068125730  
  0.8341082340617160  0.1665384835724240  0.5639564093095690  
  0.8303417017093790  0.6643098807048560  0.5656678694176380  
  0.3329162896649720  0.3284752467932530  0.5705522666348490  
  0.3327806992868500  0.8313378409875720  0.5630213847323230  
  0.8331564880117530  0.3325643793923090  0.5651586011929690  
  0.8323130985982700  0.8321636420081260  0.5638273941202240  
  0.0562609683201316  0.1129167966543530  0.4361627872428500  
  0.0562783005673992  0.6129251850089620  0.4362477977702140  
  0.5562878130843530  0.1129173059215490  0.4360614559536270  
  0.5564470035020930  0.6132410503576010  0.4330185143496690  
  0.0562693357935444  0.2795914975172660  0.4361740795423400  
  0.0562807820168771  0.7795998489472920  0.4361411403960530  
  0.5563284014878040  0.2795310549307000  0.4355328874319540  
  0.5563145579456550  0.7797005403713300  0.4343323227602550  
  0.0562609157620244  0.4462605820280390  0.4362490874556570  
  0.0562778217706068  0.9462704783129400  0.4361234723829880  
  0.5564538208805840  0.4461845862647560  0.4337059949785740  
  0.5562867642557170  0.9462930652805350  0.4355036970856790  
  0.2229166441431690  0.1128981393336090  0.4359110146519140  
  0.2229171906405090  0.6129289139652130  0.4354482903681710  
  0.7229530927002590  0.1129374273619280  0.4361528082463270  
  0.7230828778732030  0.6130135278473789  0.4346051757797230  
  0.2228472174045070  0.2795282465203500  0.4353270801624020  
  0.2229414011377740  0.7796026865806740  0.4358857951337710  
  0.7229595368044029  0.2795899909921220  0.4363345597621730  
  0.7230240951074480  0.7797059704598370  0.4347070554946340  
  0.2228617731166120  0.4462554563303270  0.4350464702034880  
  0.2229445094573560  0.9462640319342980  0.4360900136477350  
  0.7230372063192260  0.4462559588220780  0.4356353545493190  
  0.7229616564796690  0.9462910724976720  0.4354684061017480  
  0.3896171439295340  0.1128974106761260  0.4358766458002710  
  0.3895714304551280  0.6130124211145190  0.4338294646297880  
  0.8896170659546599  0.1129391263529700  0.4362287089224990  
  0.8896385903961030  0.6129342757171590  0.4360262121045080  
  0.3895618267328940  0.2794577404980530  0.4347404595373730  
  0.3896099378559800  0.7796277731449310  0.4350785991252690  
  0.8896195659377500  0.2795972964289390  0.4365264279381980  
  0.8896411575435720  0.7796273067583500  0.4356839134011490  
  0.3893766561333150  0.4461773868618340  0.4333411290662570  
  0.3896159870874460  0.9462707594146240  0.4358359444745690  
  0.8896293800897870  0.4462592027937330  0.4364722338899580  
  0.8896318222562130  0.9462918728984560  0.4358471849227500  
  0.1101242783071540  0.0528096524870705  0.5645733889607530  
  0.1114154176840150  0.5538812424899080  0.5647786043510760  
  0.6111344062727180  0.0549981649774267  0.5632211723413080  
  0.6059836610976180  0.5567598927405371  0.5682730571140840  
  0.1121691577443760  0.2212272048858000  0.5659019619108110  
  0.1097204238834310  0.7196647111523971  0.5641649293757990  
  0.6104942696043880  0.2204118815606510  0.5658148077348740  
  0.6128321315978130  0.7256028151073440  0.5633160817106740  
  0.1127903735282270  0.3880201954091190  0.5654248071456320  
  0.1094218804250030  0.8858235590213330  0.5638233161926320  
  0.6088931336236810  0.3859561419497910  0.5700046008234660  
  0.6117006802202740  0.8898599718551879  0.5623776099478160  
  0.2761354430361540  0.0515504574694816  0.5647877783815640  
  0.2806078390741360  0.5546653332483520  0.5644808016754150  
  0.7785356111556960  0.0557078109974469  0.5632983324943840  
  0.7729072446598200  0.5532987399268520  0.5671385536054390  
  0.2807398361808850  0.3878231710894440  0.5678368163007410  
  0.2765633088018550  0.8860583843201441  0.5633626272804760  
  0.7766253852828980  0.3874609316742690  0.5663022035497320  
  0.7786433536883660  0.8894832067702440  0.5633193394838830  
  0.4435158978215480  0.0526453718536999  0.5638701071693790  
  0.4502683704877550  0.5623711622674390  0.5615801188323740  
  0.9451115546992170  0.0550607240180128  0.5639746174122350  
  0.9424363750868420  0.5535488190959940  0.5654234984221770  
  0.4426953451222960  0.2162180262510130  0.5680634455952930  
  0.4449954605558800  0.7233703627139360  0.5622633871134251  
  0.9453805722935090  0.2218068451858950  0.5645349158598800  
  0.9421497096459031  0.7195672134404060  0.5647562401931761  
  0.4389371656649390  0.3725938278322050  0.5741901936198840  
  0.4441027309305880  0.8878679404932440  0.5627369210336750  
  0.9446617963431549  0.3878512976436850  0.5650461008059440  
  0.9433244523872090  0.8869171750194770  0.5638338688761240  
  0.2761748538323370  0.2173498241534380  0.5678741619459440  
  0.2773834967194730  0.7203900353488630  0.5633701697611930  
  0.7780411978573410  0.2216277124881500  0.5644213148054580  
  0.7759158816178700  0.7208012800472900  0.5649889573308680  
  0.4794149885372290  0.4824401950709430  0.5293462829843780  
