C    H    Li                            
   1.0000000000000000     
    37.0938796996999969    0.0000000000000000    0.0000000000000000
     0.0000000000000000    7.3546423911999996    0.0000000000000000
     0.0000000000000000    0.0000000000000000   27.8030738831000015
   C    H    Li
   108    12     1
Direct
  0.4994351174051310  0.8333953128152733  0.4366621255914002
  0.7302638108928731  0.8332881847285992  0.5630296396061887
  0.3840165526713428  0.8333889431084242  0.4362257993570644
  0.6148973953778125  0.8333774114159296  0.4370824354514632
  0.4417219101407527  0.6667181812116103  0.4363839888172866
  0.6726802973214114  0.6667014961676537  0.4368487881295761
  0.3263309990158230  0.6667602961898951  0.4362461877442223
  0.5571571265497053  0.6667246582060556  0.4369597889914660
  0.4994351637280890  0.1667297067151762  0.4366595281953366
  0.7302644631558648  0.1666204254311554  0.5630296148264080
  0.3840071543312147  0.1667246688880955  0.4361976344613482
  0.6148974442327078  0.1667107311771271  0.4370821716597154
  0.4417219595182095  0.0000544794133207  0.4363841592555511
  0.6726802960055589  0.0000343767228366  0.4368487886918218
  0.3263311327395837  0.0000095493816265  0.4362472103131370
  0.5571571263050983  0.0000563593528820  0.4369597861315005
  0.4994351611601328  0.5000608602213024  0.4366595093983043
  0.7302644377026385  0.4999565728843450  0.5630296570114365
  0.3840070972098774  0.5000516175755755  0.4361971954452090
  0.6148974436128498  0.5000440905983234  0.4370821768654802
  0.4417200545861119  0.3333863221255858  0.4363786383120614
  0.6726802249088556  0.3333679364609783  0.4368489039229529
  0.3263193901967127  0.3333853019653615  0.4362037286859388
  0.5571571838959309  0.3333905137993612  0.4369591725197645
  0.2690034297427338  0.8333897197675217  0.4364316276939948
  0.4997538174723524  0.8332666984876734  0.5631440108196636
  0.3842347187773630  0.8332767929438897  0.5624270790601357
  0.6152189869989659  0.8332707293596342  0.5637495860403889
  0.4420003791769503  0.6665890192242039  0.5627375750209129
  0.6729248268821864  0.6666102122789810  0.5636827017860202
  0.3264071118770983  0.6665986698975070  0.5624946218021071
  0.5574917826418582  0.6666029629818941  0.5635308984341225
  0.2691085295466107  0.1665658881436876  0.4360085599935355
  0.4997536524173388  0.1665945991259800  0.5631371886918268
  0.3842137813040805  0.1666336654407138  0.5623750805966050
  0.6152182787903888  0.1666016495218859  0.5637489725919650
  0.4420004250578527  0.9999486231582553  0.5627376142177628
  0.6729249112319586  0.9999450823458761  0.5636826768065317
  0.3264068225960824  0.9999488943792693  0.5624943968449704
  0.5574917671286554  0.9999348681867331  0.5635309473908521
  0.2691079322426850  0.5002102252564530  0.4360093304860383
  0.4997536040632896  0.4999398864226511  0.5631368079675992
  0.3842139778847075  0.4999198492806282  0.5623748778314175
  0.6152182475454928  0.4999395777186975  0.5637489701399977
  0.4420022282188046  0.3332683764377330  0.5627226586158137
  0.6729249118976032  0.3332776597082600  0.5636823559045481
  0.3263211185501830  0.3332723246431322  0.5623845438481887
  0.5574920412271808  0.3332685241938090  0.5635282565115076
  0.4609565671832921  0.8333871795223109  0.4364616015118853
  0.6918156409375980  0.8333668191028148  0.4366910776582535
  0.3454539078184319  0.8333848531799584  0.4362331935589723
  0.5763967032128399  0.8333868679190759  0.4370171097952366
  0.4032223639492031  0.6667180563717809  0.4362350126363392
  0.6341152689976982  0.6667082200936518  0.4370375653980836
  0.2874422050278754  0.6669735777919081  0.4362709516133833
  0.5186781389051147  0.6667313280337747  0.4367538172137637
  0.4609564049808805  0.1667226368092115  0.4364562476745924
  0.6918155601094662  0.1667001684860850  0.4366912894845691
  0.3454386207768214  0.1667025598311033  0.4361724833353656
  0.5763966454568574  0.1667200909823239  0.4370165703156999
  0.4032224317648841  0.0000571613561224  0.4362353795526620
  0.6341152687013237  0.0000408025794958  0.4370375626080851
  0.2874423397073431  0.9998003308610545  0.4362715716028699
  0.5186781445711535  0.0000632267086928  0.4367538272428295
  0.4609563944693756  0.5000519217608118  0.4364561517911411
  0.6918155611319221  0.5000334702310203  0.4366912887105690
  0.3454383808448974  0.5000681977844897  0.4361718167592210
  0.5763966449815272  0.5000536650717942  0.4370165755275205
  0.4032185342345324  0.3333878681845124  0.4362206528968992
  0.6341151694835037  0.3333745136196132  0.4370373878060020
  0.2874120702567093  0.3333890915363624  0.4360881798382757
  0.5186780843925957  0.3333973240221287  0.4367522831542833
  0.4805030056335913  0.9999433786343808  0.5630074018567066
  0.7118103464837489  0.9999548076812248  0.5633498746554997
  0.3650110790697403  0.9999846812291433  0.5623324521084999
  0.5959998845950119  0.9999362095893476  0.5637144944190386
  0.4227585447209029  0.8332716077231911  0.5626425167143508
  0.6537920725053331  0.8332738736815001  0.5637634540562073
  0.3073413991417495  0.8332719334677533  0.5630183712916020
  0.5382516267166491  0.8332692617677299  0.5634288738772996
  0.4805016463470292  0.3332685056986544  0.5630021903188491
  0.7118108745876360  0.3332865927542574  0.5633499191466277
  0.3649417833547662  0.3332773253247065  0.5623142461172648
  0.5959996826136563  0.3332680192144397  0.5637138516454102
  0.4227463646262600  0.1666150435065742  0.5626056994816262
  0.6537914936191744  0.1666044320369852  0.5637630136283476
  0.3072011921560750  0.1664152852243464  0.5625675166928193
  0.5382516008287153  0.1665965953780680  0.5634237271829999
  0.4805029578703826  0.6665936336652217  0.5630074154080469
  0.7118102614906615  0.6666180916456756  0.5633500451067573
  0.3650114857070851  0.6665673760947641  0.5623320665727207
  0.5959998934987843  0.6666001135251798  0.5637144887970243
  0.4227466921688791  0.4999263710484536  0.5626057368631129
  0.6537914532387957  0.4999431914556753  0.5637630116611531
  0.3072012999913952  0.5001297205656510  0.5625684299708755
  0.5382516432751961  0.4999414400698980  0.5634236494824272
  0.2684691578135937  0.8332742333022921  0.5644194288294612
  0.2682639468941365  0.5008622685195739  0.5641377851678113
  0.2682642932995885  0.1656919046778041  0.5641401343265003
  0.7306945613897224  0.8333644644678403  0.4363722086809806
  0.7306946225378059  0.5000312530134751  0.4363727238296943
  0.7306946224300755  0.1666976714622320  0.4363727291248519
  0.2501023741007727  0.6670385798171894  0.5651516552242061
  0.2498573720066956  0.3332781578078196  0.5656068001853840
  0.2501039624598643  0.9995134610832148  0.5651551963454656
  0.7491565571189353  0.0000307976422032  0.4362288576170293
  0.7491565224789252  0.3333641927370587  0.4362298487844959
  0.7491565564942325  0.6666975942105091  0.4362288448084480
  0.2395197225447022  0.8333865505444299  0.4369513033650635
  0.2395287058345915  0.5013202060368608  0.4349851763274062
  0.2395290555711478  0.1654571283201494  0.4349736868734636
  0.7597290165544098  0.8332901666186594  0.5623129753493651
  0.7597295589863318  0.4999590173814805  0.5623126913411276
  0.7597295782286404  0.1666216667882569  0.5623126579045634
  0.2205690348015239  0.6681519381830263  0.5665520936214888
  0.2211812762686280  0.3332868249415093  0.5758619859391292
  0.2205703622697917  0.9984023045185605  0.5665604485483411
  0.7786336348771172  0.0000327180409902  0.4360057418919622
  0.7786336058113924  0.3333661045297375  0.4360067160452975
  0.7786336343348181  0.6666995116623288  0.4360057015867734
  0.1923095531318723  0.3329616671865850  0.4991391128985076

             NaN             NaN             NaN
             NaN             NaN             NaN
             NaN             NaN             NaN
             NaN             NaN             NaN
             NaN             NaN             NaN
             NaN             NaN             NaN
             NaN             NaN             NaN
             NaN             NaN             NaN
             NaN             NaN             NaN
             NaN             NaN             NaN
             NaN             NaN             NaN
             NaN             NaN             NaN
             NaN             NaN             NaN
             NaN             NaN             NaN
             NaN             NaN             NaN
             NaN             NaN             NaN
             NaN             NaN             NaN
             NaN             NaN             NaN
             NaN             NaN             NaN
             NaN             NaN             NaN
             NaN             NaN             NaN
             NaN             NaN             NaN
             NaN             NaN             NaN
             NaN             NaN             NaN
             NaN             NaN             NaN
             NaN             NaN             NaN
             NaN             NaN             NaN
             NaN             NaN             NaN
             NaN             NaN             NaN
             NaN             NaN             NaN
             NaN             NaN             NaN
             NaN             NaN             NaN
             NaN             NaN             NaN
             NaN             NaN             NaN
             NaN             NaN             NaN
             NaN             NaN             NaN
             NaN             NaN             NaN
             NaN             NaN             NaN
             NaN             NaN             NaN
             NaN             NaN             NaN
             NaN             NaN             NaN
             NaN             NaN             NaN
             NaN             NaN             NaN
             NaN             NaN             NaN
             NaN             NaN             NaN
             NaN             NaN             NaN
             NaN             NaN             NaN
             NaN             NaN             NaN
             NaN             NaN             NaN
             NaN             NaN             NaN
             NaN             NaN             NaN
             NaN             NaN             NaN
             NaN             NaN             NaN
             NaN             NaN             NaN
             NaN             NaN             NaN
             NaN             NaN             NaN
             NaN             NaN             NaN
             NaN             NaN             NaN
             NaN             NaN             NaN
             NaN             NaN             NaN
             NaN             NaN             NaN
             NaN             NaN             NaN
             NaN             NaN             NaN
             NaN             NaN             NaN
             NaN             NaN             NaN
             NaN             NaN             NaN
             NaN             NaN             NaN
             NaN             NaN             NaN
             NaN             NaN             NaN
             NaN             NaN             NaN
             NaN             NaN             NaN
             NaN             NaN             NaN
             NaN             NaN             NaN
             NaN             NaN             NaN
             NaN             NaN             NaN
             NaN             NaN             NaN
             NaN             NaN             NaN
             NaN             NaN             NaN
             NaN             NaN             NaN
             NaN             NaN             NaN
             NaN             NaN             NaN
             NaN             NaN             NaN
             NaN             NaN             NaN
             NaN             NaN             NaN
             NaN             NaN             NaN
             NaN             NaN             NaN
             NaN             NaN             NaN
             NaN             NaN             NaN
             NaN             NaN             NaN
             NaN             NaN             NaN
             NaN             NaN             NaN
             NaN             NaN             NaN
             NaN             NaN             NaN
             NaN             NaN             NaN
             NaN             NaN             NaN
             NaN             NaN             NaN
             NaN             NaN             NaN
             NaN             NaN             NaN
             NaN             NaN             NaN
             NaN             NaN             NaN
             NaN             NaN             NaN
             NaN             NaN             NaN
             NaN             NaN             NaN
             NaN             NaN             NaN
             NaN             NaN             NaN
             NaN             NaN             NaN
             NaN             NaN             NaN
             NaN             NaN             NaN
             NaN             NaN             NaN
             NaN             NaN             NaN
             NaN             NaN             NaN
             NaN             NaN             NaN
             NaN             NaN             NaN
             NaN             NaN             NaN
             NaN             NaN             NaN
             NaN             NaN             NaN
             NaN             NaN             NaN
             NaN             NaN             NaN
             NaN             NaN             NaN
             NaN             NaN             NaN
             NaN             NaN             NaN
