C    H    Li                            
   1.0000000000000000     
    37.0938796996999969    0.0000000000000000    0.0000000000000000
     0.0000000000000000    7.3546423911999996    0.0000000000000000
     0.0000000000000000    0.0000000000000000   27.8030738831000015
   C    H    Li
   108    12     1
Direct
  0.4995870029830131  0.8333651338574035  0.4366380320164417
  0.7305876284254829  0.8333140811075483  0.5632418825270449
  0.3841770739340833  0.8333862553241685  0.4362748751249076
  0.6150340874080585  0.8333572002021261  0.4369620226250761
  0.4418801919691878  0.6667086712530705  0.4364520772007009
  0.6728108060203162  0.6666906794017367  0.4367321251348735
  0.3264893969407717  0.6667168073354539  0.4362980394917119
  0.5573030570943880  0.6666929252880976  0.4368405735528827
  0.4995869622283893  0.1666985099640553  0.4366379933653682
  0.7305876175021063  0.1666474310616197  0.5632416866347527
  0.3841768520184327  0.1667192321094793  0.4362749772852956
  0.6150340945530083  0.1666905446659868  0.4369619120350934
  0.4418802039135618  0.0000416145042161  0.4364520884374918
  0.6728108066994644  0.0000236134801190  0.4367320028873671
  0.3264894380559737  0.0000459183464474  0.4362964174542131
  0.5573030574426949  0.0000261453158765  0.4368405935732774
  0.4995869562325300  0.5000317499187297  0.4366379552804734
  0.7305876264046853  0.4999803858097415  0.5632414044719766
  0.3841768760098010  0.5000530766179347  0.4362749905467376
  0.6150340974551004  0.5000238578088128  0.4369619309437139
  0.4418800692280652  0.3333751050578910  0.4364523323423586
  0.6728108377506851  0.3333571311153835  0.4367320130664601
  0.3264904529398404  0.3333813402733873  0.4363013044412897
  0.5573030207728050  0.3333595436481707  0.4368405543771999
  0.2691595276560095  0.8333930992852143  0.4368140386884546
  0.5001582258399306  0.8332841807076570  0.5632328584026910
  0.3847042137003299  0.8332524732417441  0.5629742624810367
  0.6155702817561801  0.8333070006908384  0.5636656758035753
  0.4424381003314979  0.6666108876174246  0.5630154557397331
  0.6732609238099942  0.6666452045509972  0.5637277341094989
  0.3269226789149977  0.6666156890502904  0.5632312878462097
  0.5578676394760781  0.6666310796111599  0.5634641265104869
  0.2691716945978964  0.1667205639904318  0.4367941507334908
  0.5001580269934491  0.1666176536498410  0.5632324419784633
  0.3847022618943778  0.1665829516572549  0.5629737884375433
  0.6155702377691430  0.1666402609271259  0.5636656128768951
  0.4424380873732950  0.9999450842426972  0.5630154419968297
  0.6732609241476815  0.9999787161401796  0.5637277189770066
  0.3269228039592083  0.9999149078223485  0.5632310354278049
  0.5578676364646867  0.9999647552419271  0.5634641146990322
  0.2691716138695703  0.5000652560060889  0.4367957761182508
  0.5001580329048581  0.4999507680843150  0.5632324459736620
  0.3847022625437371  0.4999223389147538  0.5629737997924991
  0.6155702358838878  0.4999737671997431  0.5636656272765186
  0.4424375709988229  0.3332780613638194  0.5630151058010252
  0.6732610296069500  0.3333119651426932  0.5637276637465096
  0.3269215189993375  0.3332657669849041  0.5632400720618203
  0.5578677775583082  0.3332979446553159  0.5634640130139255
  0.4611136686428784  0.8333733118094190  0.4365064440666711
  0.6919461957411397  0.8333573405685009  0.4365757199703917
  0.3456179259216501  0.8333804515033364  0.4362394649125160
  0.5765386991052401  0.8333587519074143  0.4369002179467525
  0.4033870496276592  0.6667209304011955  0.4363115375416071
  0.6342479447177758  0.6666904449531342  0.4369191518002379
  0.2876084975365862  0.6667467854274528  0.4365638260622922
  0.5188276641640953  0.6666968267125047  0.4366905747808610
  0.4611136080258542  0.1667066891243292  0.4365064981191837
  0.6919460726481049  0.1666904813870969  0.4365756060779697
  0.3456177471705770  0.1667115703996236  0.4362397317383881
  0.5765386772895283  0.1666921117054110  0.4369001637176068
  0.4033870646144762  0.0000533361075355  0.4363114933002746
  0.6342479445889803  0.0000236205538032  0.4369191083308563
  0.2876087405025837  0.0000384484761480  0.4365606210242630
  0.5188276670658072  0.0000300948919828  0.4366906067189114
  0.4611135975779413  0.5000399453640477  0.4365064633339042
  0.6919460631058405  0.5000241495074175  0.4365757783091765
  0.3456177658418920  0.5000494993254310  0.4362403103784885
  0.5765386788891618  0.5000253899414814  0.4369001510144768
  0.4033868382629538  0.3333871007110217  0.4363121067887102
  0.6342479681527839  0.3333570163194985  0.4369190194467647
  0.2876077184378266  0.3333938325648766  0.4365617401896516
  0.5188276696864451  0.3333634769957052  0.4366905859954893
  0.4809187716231765  0.9999491050504535  0.5631646955455849
  0.7121361361623590  0.9999806708067731  0.5634986659065053
  0.3654898801755690  0.9999154685019496  0.5630309834409597
  0.5963595120840512  0.9999721831459288  0.5636121598928751
  0.4232030220064817  0.8332746850298830  0.5629812848673996
  0.6541317728060815  0.8333110295558963  0.5637569911125979
  0.3077876775396582  0.8332692234397286  0.5634251424226769
  0.5386338608486138  0.8332950463386828  0.5634046591408217
  0.4809180360345072  0.3332819155545410  0.5631643333445987
  0.7121360190948698  0.3333138837687993  0.5634985578406652
  0.3654876180621965  0.3332540906689606  0.5630350662495687
  0.5963593485851352  0.3333053282656344  0.5636121325216787
  0.4232015624092962  0.1666068822704063  0.5629798996289078
  0.6541317716310786  0.1666442783285330  0.5637569163372552
  0.3077945902963017  0.1665813070073529  0.5634171306243446
  0.5386337615154956  0.1666283217982573  0.5634044227736663
  0.4809187775951543  0.6666147313039237  0.5631647011632009
  0.7121361354653122  0.6666470988709494  0.5634986751315954
  0.3654898094829034  0.6665924220565612  0.5630311161150144
  0.5963595160463482  0.6666385101885492  0.5636121745744952
  0.4232015632181512  0.4999425715141550  0.5629799053233147
  0.6541317713918821  0.4999777778832357  0.5637569303083653
  0.3077943561387194  0.4999568767761574  0.5634167065707321
  0.5386337712648012  0.4999616834112869  0.5634044317446055
  0.2689005527020867  0.8332750057285553  0.5638491442568667
  0.2689102241433715  0.5000285627086426  0.5639138974006979
  0.2689105586558412  0.1665202526171770  0.5639153904280675
  0.7308250692131293  0.8333585650377304  0.4362738565607532
  0.7308247839465248  0.5000254260134960  0.4362741292975498
  0.7308247979112877  0.1666916635222955  0.4362736951866311
  0.2504511600569738  0.6666281293502087  0.5641038816907072
  0.2505109152872244  0.3332742836677859  0.5643224953408458
  0.2504512578304797  0.9999255293283088  0.5641052029352887
  0.7492872565009883  0.0000257334698456  0.4361380817137188
  0.7492868731017461  0.3333588569138111  0.4361385103705894
  0.7492872364277173  0.6666919499331438  0.4361387841068093
  0.2396895546833294  0.8333821492216236  0.4374251034267936
  0.2396828108136462  0.5000719151440051  0.4373435712555913
  0.2396826952647659  0.1666934110820356  0.4373434848887481
  0.7600517191752029  0.8333134178847486  0.5626360385835298
  0.7600517091864478  0.4999798258305259  0.5626355641521223
  0.7600517100817791  0.1666470429942533  0.5626356110987789
  0.2209569730846187  0.6666372552465789  0.5644844243932161
  0.2209857028642448  0.3332763874644197  0.5652802775733652
  0.2209569541427975  0.9999221225628779  0.5644863992806023
  0.7787633047520240  0.0000295472104226  0.4359251083139047
  0.7787626960133484  0.3333619582761367  0.4359257424484430
  0.7787632790056118  0.6666941869120094  0.4359263191530203
  0.1519798702246624  0.3328730952142789  0.4997531665289380

             NaN             NaN             NaN
             NaN             NaN             NaN
             NaN             NaN             NaN
             NaN             NaN             NaN
             NaN             NaN             NaN
             NaN             NaN             NaN
             NaN             NaN             NaN
             NaN             NaN             NaN
             NaN             NaN             NaN
             NaN             NaN             NaN
             NaN             NaN             NaN
             NaN             NaN             NaN
             NaN             NaN             NaN
             NaN             NaN             NaN
             NaN             NaN             NaN
             NaN             NaN             NaN
             NaN             NaN             NaN
             NaN             NaN             NaN
             NaN             NaN             NaN
             NaN             NaN             NaN
             NaN             NaN             NaN
             NaN             NaN             NaN
             NaN             NaN             NaN
             NaN             NaN             NaN
             NaN             NaN             NaN
             NaN             NaN             NaN
             NaN             NaN             NaN
             NaN             NaN             NaN
             NaN             NaN             NaN
             NaN             NaN             NaN
             NaN             NaN             NaN
             NaN             NaN             NaN
             NaN             NaN             NaN
             NaN             NaN             NaN
             NaN             NaN             NaN
             NaN             NaN             NaN
             NaN             NaN             NaN
             NaN             NaN             NaN
             NaN             NaN             NaN
             NaN             NaN             NaN
             NaN             NaN             NaN
             NaN             NaN             NaN
             NaN             NaN             NaN
             NaN             NaN             NaN
             NaN             NaN             NaN
             NaN             NaN             NaN
             NaN             NaN             NaN
             NaN             NaN             NaN
             NaN             NaN             NaN
             NaN             NaN             NaN
             NaN             NaN             NaN
             NaN             NaN             NaN
             NaN             NaN             NaN
             NaN             NaN             NaN
             NaN             NaN             NaN
             NaN             NaN             NaN
             NaN             NaN             NaN
             NaN             NaN             NaN
             NaN             NaN             NaN
             NaN             NaN             NaN
             NaN             NaN             NaN
             NaN             NaN             NaN
             NaN             NaN             NaN
             NaN             NaN             NaN
             NaN             NaN             NaN
             NaN             NaN             NaN
             NaN             NaN             NaN
             NaN             NaN             NaN
             NaN             NaN             NaN
             NaN             NaN             NaN
             NaN             NaN             NaN
             NaN             NaN             NaN
             NaN             NaN             NaN
             NaN             NaN             NaN
             NaN             NaN             NaN
             NaN             NaN             NaN
             NaN             NaN             NaN
             NaN             NaN             NaN
             NaN             NaN             NaN
             NaN             NaN             NaN
             NaN             NaN             NaN
             NaN             NaN             NaN
             NaN             NaN             NaN
             NaN             NaN             NaN
             NaN             NaN             NaN
             NaN             NaN             NaN
             NaN             NaN             NaN
             NaN             NaN             NaN
             NaN             NaN             NaN
             NaN             NaN             NaN
             NaN             NaN             NaN
             NaN             NaN             NaN
             NaN             NaN             NaN
             NaN             NaN             NaN
             NaN             NaN             NaN
             NaN             NaN             NaN
             NaN             NaN             NaN
             NaN             NaN             NaN
             NaN             NaN             NaN
             NaN             NaN             NaN
             NaN             NaN             NaN
             NaN             NaN             NaN
             NaN             NaN             NaN
             NaN             NaN             NaN
             NaN             NaN             NaN
             NaN             NaN             NaN
             NaN             NaN             NaN
             NaN             NaN             NaN
             NaN             NaN             NaN
             NaN             NaN             NaN
             NaN             NaN             NaN
             NaN             NaN             NaN
             NaN             NaN             NaN
             NaN             NaN             NaN
             NaN             NaN             NaN
             NaN             NaN             NaN
             NaN             NaN             NaN
             NaN             NaN             NaN
             NaN             NaN             NaN
             NaN             NaN             NaN
             NaN             NaN             NaN
