C    H    Li                            
   1.0000000000000000     
    37.0938796996999969    0.0000000000000000    0.0000000000000000
     0.0000000000000000    7.3546423911999996    0.0000000000000000
     0.0000000000000000    0.0000000000000000   27.8030738831000015
   C    H    Li
   108    12     1
Direct
  0.4996258899997710  0.8333507026593839  0.4366257841522602
  0.7306625924696653  0.8333191850732673  0.5633947284571323
  0.3842308259230872  0.8333487957426650  0.4362579880044309
  0.6150578347027693  0.8333541800173545  0.4367462532127074
  0.4419260426942489  0.6666898099144588  0.4365018251725019
  0.6728299424783833  0.6666880890103156  0.4365400263905574
  0.3265444154485989  0.6666888231243624  0.4361677618190302
  0.5573342645396777  0.6666952260624023  0.4367286618670172
  0.4996256859471598  0.1667028394480683  0.4366263482005256
  0.7306624475914741  0.1666192432967296  0.5633942638546972
  0.3842307156920173  0.1666924945679773  0.4362582585642543
  0.6150578608390452  0.1667012139519138  0.4367470205617880
  0.4419273224384273  0.0000200934441274  0.4364731636855024
  0.6728263762270611  0.0000225336535654  0.4365281580989818
  0.3265537382245677  1.0000196553900813  0.4361613668302148
  0.5573330719122699  0.0000227286812945  0.4367001927910924
  0.4996261844889932  0.5000228246803882  0.4366550992189818
  0.7306718499320298  0.4999688468315970  0.5633992803544127
  0.3842256615136197  0.5000193314750562  0.4362810464652098
  0.6150598037710187  0.5000273104162969  0.4367658441451800
  0.4419264484221930  0.3333530302428077  0.4365026635307099
  0.6728305888286853  0.3333655872383479  0.4365405963672617
  0.3265444305566129  0.3333478988699501  0.4361675508249481
  0.5573343748163252  0.3333495303677226  0.4367277651861557
  0.2692279674806888  0.8333649643325277  0.4365366051136169
  0.5002543237334809  0.8332833863719017  0.5632975217455095
  0.3848160685179625  0.8332996120166034  0.5632906160494573
  0.6156533011107941  0.8332997301282596  0.5636298917703130
  0.4425428113865378  0.6666320392669906  0.5632129678788702
  0.6733444859730467  0.6666414931776742  0.5637525870908381
  0.3270439028223823  0.6666352636110542  0.5635523061806431
  0.5579564396907214  0.6666400049550165  0.5634222863942792
  0.2692290638320121  0.1666719320879430  0.4365382181734262
  0.5002541197120799  0.1666380485113345  0.5632978489971132
  0.3848160768620695  0.1666391343076307  0.5632918507854084
  0.6156531231043340  0.1666455708911409  0.5636300132341376
  0.4425440017182362  0.9999651299749451  0.5632431718628688
  0.6733332980152527  0.9999732619435868  0.5637590060900205
  0.3270475303748364  0.9999723443393431  0.5635688747386297
  0.5579559169106940  0.9999720451500714  0.5634491367246548
  0.2692193911288009  0.5000187747107420  0.4365317648157558
  0.5002527303354902  0.4999606454061778  0.5632726149714711
  0.3848155897322653  0.4999668743301651  0.5632734751006039
  0.6156565592292113  0.4999741156063977  0.5636175422364752
  0.4425430062720357  0.3332927329372867  0.5632125317506710
  0.6733442504858898  0.3333045665258598  0.5637526322665465
  0.3270436698589399  0.3333132549065190  0.5635528543271273
  0.5579566453446611  0.3333039823886990  0.5634220366992988
  0.4611536309610146  0.8333508444312160  0.4365340809916342
  0.6919630798907643  0.8333552451237862  0.4363897520116516
  0.3456784381613266  0.8333444271115470  0.4361538259220229
  0.5765620640041732  0.8333570025128060  0.4367278326690840
  0.4034388561239990  0.6666865617179970  0.4363394472993007
  0.6342694669392679  0.6666925332198982  0.4367170683401667
  0.2876715493902376  0.6666829602076122  0.4363312185730044
  0.5188573379631233  0.6666918270519767  0.4366617223538645
  0.4611535572260297  0.1666912563920556  0.4365352227946470
  0.6919628775143287  0.1666919730284262  0.4363901027034254
  0.3456786184893799  0.1666941841887869  0.4361548971609702
  0.5765614966898647  0.1666911799351331  0.4367277299845897
  0.4034401908641613  0.0000242842431535  0.4363095900625963
  0.6342661893345830  0.0000260909615456  0.4367014536574150
  0.2876833691542715  1.0000166465752685  0.4363271825945860
  0.5188553597404237  0.0000279073502349  0.4366321095455984
  0.4611532502473267  0.5000222253207837  0.4365622077671455
  0.6919695003276169  0.5000275679753193  0.4363967518653170
  0.3456732246748785  0.5000170191781721  0.4361608491110706
  0.5765631345404920  0.5000232812509900  0.4367465607770172
  0.4034390574720393  0.3333549394370205  0.4363392564145676
  0.6342697301202203  0.3333623459153833  0.4367172271961485
  0.2876708688227138  0.3333555750109840  0.4363322319947318
  0.5188579333287804  0.3333589622862405  0.4366617036114871
  0.4810232873213918  0.9999624083837668  0.5632893832192756
  0.7122037992713626  0.9999712372982110  0.5636063121728276
  0.3656043454673398  0.9999676487911776  0.5633689249811639
  0.5964457462185798  0.9999727010164620  0.5635839039661649
  0.4233106442571851  0.8332986432010784  0.5632391351476808
  0.6542102055963371  0.8332968075755841  0.5637564619562959
  0.3079122080443681  0.8333064691626274  0.5637204767580323
  0.5387295181763374  0.8333014781479620  0.5633995822721176
  0.4810193712523118  0.3332951237361632  0.5632593124367504
  0.7122168090751292  0.3333070378448939  0.5635998462352495
  0.3656016855856678  0.3333045743253281  0.5633455509526114
  0.5964440803737268  0.3333060365720529  0.5635582102697995
  0.4233107934214065  0.1666344915559291  0.5632396481947490
  0.6542101742768432  0.1666498980036924  0.5637564472672918
  0.3079127054908457  0.1666389979586542  0.5637200235437754
  0.5387293081119896  0.1666405425342833  0.5633997385592064
  0.4810194543701033  0.6666289245456086  0.5632593395316055
  0.7122176490492401  0.6666348992369239  0.5636001326785636
  0.3656018333505830  0.6666356316878768  0.5633456180434220
  0.5964445389690948  0.6666376390620341  0.5635580905698661
  0.4233113221476384  0.4999662177814909  0.5632194332138967
  0.6542150553562323  0.4999734427611687  0.5637498765373619
  0.3079053994835260  0.4999753610332326  0.5637085560158130
  0.5387288019842102  0.4999717210427626  0.5633761808306358
  0.2690350483678731  0.8332996500177149  0.5640499917237729
  0.2690237766715481  0.4999803826214809  0.5640366964051637
  0.2690358216272229  0.1666241772062666  0.5640485376253438
  0.7308400502606776  0.8333512296729176  0.4361381712878085
  0.7308511170865795  0.5000207797620079  0.4361553456443096
  0.7308396019476994  0.1666909468363914  0.4361384473685609
  0.2505720039666232  0.6666539794286876  0.5642044350226574
  0.2505819430687008  0.3332818191046248  0.5642053178016102
  0.2505798712680267  0.9999687857517006  0.5642164624692266
  0.7493024376751272  0.0000237711805930  0.4360417636693533
  0.7493097167093897  0.3333399696710216  0.4360479138010093
  0.7493104714094628  0.6666997008436530  0.4360481729791672
  0.2397597394563144  0.8334761923855016  0.4370685898066313
  0.2397470829283173  0.5000192859483478  0.4370677002675843
  0.2397567725049000  0.1665609271303641  0.4370693235334201
  0.7601291904013469  0.8334189364585632  0.5628704462448249
  0.7601394465588865  0.4999693878256126  0.5628752870889316
  0.7601293498392342  0.1665205325296301  0.5628703182810532
  0.2210936876375502  0.6667348993975027  0.5644573112892506
  0.2210924908128588  0.3332104214822167  0.5644610169875977
  0.2210995175565934  0.9999765426510657  0.5644451019411781
  0.7787782754573862  0.0000191439226564  0.4359265786774414
  0.7787819980735481  0.3332648799346395  0.4359111438964448
  0.7787838762214898  0.6667683269750920  0.4359116612239257
  0.1402437638393566  0.3328719773120933  0.5001605692912042

             NaN             NaN             NaN
             NaN             NaN             NaN
             NaN             NaN             NaN
             NaN             NaN             NaN
             NaN             NaN             NaN
             NaN             NaN             NaN
             NaN             NaN             NaN
             NaN             NaN             NaN
             NaN             NaN             NaN
             NaN             NaN             NaN
             NaN             NaN             NaN
             NaN             NaN             NaN
             NaN             NaN             NaN
             NaN             NaN             NaN
             NaN             NaN             NaN
             NaN             NaN             NaN
             NaN             NaN             NaN
             NaN             NaN             NaN
             NaN             NaN             NaN
             NaN             NaN             NaN
             NaN             NaN             NaN
             NaN             NaN             NaN
             NaN             NaN             NaN
             NaN             NaN             NaN
             NaN             NaN             NaN
             NaN             NaN             NaN
             NaN             NaN             NaN
             NaN             NaN             NaN
             NaN             NaN             NaN
             NaN             NaN             NaN
             NaN             NaN             NaN
             NaN             NaN             NaN
             NaN             NaN             NaN
             NaN             NaN             NaN
             NaN             NaN             NaN
             NaN             NaN             NaN
             NaN             NaN             NaN
             NaN             NaN             NaN
             NaN             NaN             NaN
             NaN             NaN             NaN
             NaN             NaN             NaN
             NaN             NaN             NaN
             NaN             NaN             NaN
             NaN             NaN             NaN
             NaN             NaN             NaN
             NaN             NaN             NaN
             NaN             NaN             NaN
             NaN             NaN             NaN
             NaN             NaN             NaN
             NaN             NaN             NaN
             NaN             NaN             NaN
             NaN             NaN             NaN
             NaN             NaN             NaN
             NaN             NaN             NaN
             NaN             NaN             NaN
             NaN             NaN             NaN
             NaN             NaN             NaN
             NaN             NaN             NaN
             NaN             NaN             NaN
             NaN             NaN             NaN
             NaN             NaN             NaN
             NaN             NaN             NaN
             NaN             NaN             NaN
             NaN             NaN             NaN
             NaN             NaN             NaN
             NaN             NaN             NaN
             NaN             NaN             NaN
             NaN             NaN             NaN
             NaN             NaN             NaN
             NaN             NaN             NaN
             NaN             NaN             NaN
             NaN             NaN             NaN
             NaN             NaN             NaN
             NaN             NaN             NaN
             NaN             NaN             NaN
             NaN             NaN             NaN
             NaN             NaN             NaN
             NaN             NaN             NaN
             NaN             NaN             NaN
             NaN             NaN             NaN
             NaN             NaN             NaN
             NaN             NaN             NaN
             NaN             NaN             NaN
             NaN             NaN             NaN
             NaN             NaN             NaN
             NaN             NaN             NaN
             NaN             NaN             NaN
             NaN             NaN             NaN
             NaN             NaN             NaN
             NaN             NaN             NaN
             NaN             NaN             NaN
             NaN             NaN             NaN
             NaN             NaN             NaN
             NaN             NaN             NaN
             NaN             NaN             NaN
             NaN             NaN             NaN
             NaN             NaN             NaN
             NaN             NaN             NaN
             NaN             NaN             NaN
             NaN             NaN             NaN
             NaN             NaN             NaN
             NaN             NaN             NaN
             NaN             NaN             NaN
             NaN             NaN             NaN
             NaN             NaN             NaN
             NaN             NaN             NaN
             NaN             NaN             NaN
             NaN             NaN             NaN
             NaN             NaN             NaN
             NaN             NaN             NaN
             NaN             NaN             NaN
             NaN             NaN             NaN
             NaN             NaN             NaN
             NaN             NaN             NaN
             NaN             NaN             NaN
             NaN             NaN             NaN
             NaN             NaN             NaN
             NaN             NaN             NaN
             NaN             NaN             NaN
             NaN             NaN             NaN
             NaN             NaN             NaN
