C    H    Li                            
   1.0000000000000000     
    37.2234382628999967    0.0000000000000000    0.0000000000000000
     0.0000000000000000    8.5469398498999993    0.0000000000000000
     0.0000000000000000    0.0000000000000000   27.8030738831000015
   C    H    Li
   104    16     1
Direct
  0.4668232341617801  0.0029963575373218  0.4359803379820089
  0.4668237793225379  0.5029985605854087  0.4359820045508732
  0.4337421615023265  0.2529624020949246  0.4360163007713685
  0.4337414749601656  0.7529639545151259  0.4360167556339947
  0.3342468818790063  0.0026918944400214  0.4360632240764951
  0.3342458847564386  0.5027156344016800  0.4360706674996606
  0.3018324648703075  0.2565323532975052  0.4362858194083068
  0.3018249675925995  0.7565176348645454  0.4362751888061606
  0.4006125515521818  0.0035045907502878  0.4360359340711889
  0.4006113899489153  0.5035021246669438  0.4360353100722984
  0.3673293914692526  0.2530842785027242  0.4360194411678500
  0.3673322958489392  0.7530861319320576  0.4360142384576237
  0.4668220569655049  0.9969978207477985  0.5640186286094604
  0.4668221241010628  0.4970003674850592  0.5640189550113223
  0.4337408451813176  0.2470322881433484  0.5639824323739796
  0.4337391408147540  0.7470357328574583  0.5639825893954504
  0.3342420339410469  0.9972894271060576  0.5639340694033840
  0.3342454187660032  0.4973067097390436  0.5639319354527809
  0.3018347057759301  0.2434369159915022  0.5637282316619551
  0.3018224601526347  0.7435007841834844  0.5637151768961316
  0.4006091411053948  0.9964924983305035  0.5639627565473391
  0.4006106336832204  0.4964953067120926  0.5639626158423372
  0.3673285883738426  0.2469048347013012  0.5639801352181252
  0.3673284623957331  0.7469215598932102  0.5639831158579106
  0.4668215497057152  0.1697963297629741  0.4359744204762130
  0.4668203385189842  0.6697977986518205  0.4359743053856591
  0.4337389568384101  0.4199300562182830  0.4360094190024210
  0.4337383954332221  0.9199320738645634  0.4360082840653065
  0.3342555207324686  0.1704589702476500  0.4360645008567777
  0.3342565650360399  0.6704836129549142  0.4360574778089286
  0.3018157896638499  0.4166421021942757  0.4362456705795151
  0.3018098993076482  0.9166519238571166  0.4362339618746005
  0.4006101356009141  0.1695360196405729  0.4360164371804028
  0.4006108656172520  0.6695354124972746  0.4360167722948581
  0.3673232374426054  0.4200377247982534  0.4360197411446920
  0.3673262329921886  0.9200377283961516  0.4360145637842039
  0.3018098943929299  0.0833670775722593  0.5637581723742684
  0.3018104857873917  0.5833271468750217  0.5637621161254835
  0.4668197649552929  0.3302021211982258  0.5640250605629273
  0.4668190557127961  0.8301984657585475  0.5640259666006210
  0.3673243952142710  0.0799687378866318  0.5639818099185860
  0.3673236372622084  0.5799530589101296  0.5639810800854250
  0.3342548394254289  0.3295448073828720  0.5639368883333731
  0.3342562392431361  0.8295122335485787  0.5639407290718402
  0.4337377689354827  0.0800691117644266  0.5639909274271946
  0.4337371050485677  0.5800628236939452  0.5639896229399246
  0.4006082625444105  0.3304640968674370  0.5639819579903643
  0.4006103831372347  0.8304587182614098  0.5639811743936111
  0.5331773779562715  0.9969967261185997  0.5640195699658750
  0.5331769020067318  0.4969954393527646  0.5640181528386823
  0.5662587535602123  0.7470337332409227  0.5639834538901486
  0.5662583320232221  0.2470332698061723  0.5639830864296228
  0.6657503528487292  0.9972968495625200  0.5639370530285064
  0.6657515736567130  0.4972984075398504  0.5639326731569987
  0.6981723948461681  0.7434737546622923  0.5637187248119765
  0.6981729298246058  0.2434734696005517  0.5637248069818765
  0.4999994836415541  0.7467631393400945  0.5640193670790301
  0.4999996926871199  0.2467618590878923  0.5640195386176614
  0.5993869228117650  0.9964917619205974  0.5639644651808305
  0.5993875233200198  0.4964882358623556  0.5639651642955810
  0.6326675230930285  0.7469077011937453  0.5639856289793126
  0.6326688535019046  0.2469082183723782  0.5639867006305532
  0.5331781753212040  0.0029979547811082  0.4359808567022527
  0.5331784619564729  0.5029977646827147  0.4359812069721077
  0.5662606661110878  0.7529608751397442  0.4360167298820357
  0.5662598803935405  0.2529609031461916  0.4360164074829484
  0.6657528991592169  0.0026940547375665  0.4360653132702201
  0.6657531148221726  0.5026947327965707  0.4360652840048183
  0.6981742531008055  0.7565206410685115  0.4362755290467009
  0.6981743785631370  0.2565173550448316  0.4362820279462926
  0.5000014536728514  0.7532302010049153  0.4359804790902223
  0.5000015240915501  0.2532322290068830  0.4359822994066329
  0.5993888626754258  0.0035067089979322  0.4360350983617465
  0.5993889379421526  0.5035012589151621  0.4360344863843861
  0.6326696789515809  0.7530860698783348  0.4360140693500575
  0.6326705579773203  0.2530840054115727  0.4360145797363314
  0.5331795671007784  0.8301987334466860  0.5640260573409938
  0.5331789585583193  0.3301971858814884  0.5640253198516483
  0.5662609970305247  0.5800626326494501  0.5639902830777692
  0.5662608707428886  0.0800643683543477  0.5639917182131727
  0.6657407841476813  0.8295150225227790  0.5639400553829207
  0.6657419562163469  0.3295165112411608  0.5639419708223760
  0.6981882796501372  0.5833444510878762  0.5637597862599932
  0.6981876688904696  0.0833418419215869  0.5637668921709535
  0.4999992805107705  0.5804742793890001  0.5640305018701243
  0.4999997715361992  0.0804751744245737  0.5640288681332172
  0.5993887019689671  0.8304621872940710  0.5639844928190521
  0.5993894249253189  0.3304581553475741  0.5639840800954206
  0.6326734404286316  0.5799564731031880  0.5639840697194796
  0.6326730142235132  0.0799566328616146  0.5639860793407805
  0.6981898389084410  0.9166497415867115  0.4362363447407620
  0.6981901402814339  0.4166492914315961  0.4362378576141577
  0.5000006737793619  0.9195192470628549  0.4359708794317200
  0.5000012073795531  0.4195222912367978  0.4359700287416293
  0.5331815755753525  0.6697952710838270  0.4359744334967931
  0.5331809568201235  0.1697961632491048  0.4359743116334996
  0.6326749470141535  0.9200369318709132  0.4360146362325666
  0.6326757459722190  0.4200351345946229  0.4360149256183047
  0.6657430561262061  0.6704778622962999  0.4360589425697080
  0.6657436867437911  0.1704741996150651  0.4360594375777029
  0.5662626131278069  0.9199318602382599  0.4360081219692551
  0.5662622106997880  0.4199292267254942  0.4360094841332632
  0.5993911160000160  0.6695315015148038  0.4360152269988342
  0.5993912159133635  0.1695351792035073  0.4360162712714967
  0.7239162313568652  0.9771423632012347  0.4365250343788355
  0.7239176486507076  0.4771360496920414  0.4365306373951880
  0.7238794931191702  0.8041134667221183  0.5633554226646764
  0.7238805219740997  0.3041081700329008  0.5633671004367192
  0.7238814899905708  0.6958864499391842  0.4366344492861731
  0.7238813874719412  0.1958779930667377  0.4366439055404578
  0.7239143480645740  0.0228483934696654  0.5634811597483592
  0.7239156481475035  0.5228584958564713  0.5634655058638234
  0.2760742884301021  0.0228597271010320  0.5634637534865022
  0.2760702703661969  0.5228571823825990  0.5634626171536395
  0.2761041517270825  0.1958826198241427  0.4366608583006320
  0.2761162797704201  0.6958657175637936  0.4366354309019458
  0.2761002407654883  0.3041209607862467  0.5633640489578989
  0.2761174161147886  0.8041207125357011  0.5633518752152504
  0.2760813407961882  0.9771581644436504  0.4365224852635923
  0.2760685708693854  0.4771343933853795  0.4365508630182537
  0.1956697589632355  0.3312803394705814  0.4999873611938075

             NaN             NaN             NaN
             NaN             NaN             NaN
             NaN             NaN             NaN
             NaN             NaN             NaN
             NaN             NaN             NaN
             NaN             NaN             NaN
             NaN             NaN             NaN
             NaN             NaN             NaN
             NaN             NaN             NaN
             NaN             NaN             NaN
             NaN             NaN             NaN
             NaN             NaN             NaN
             NaN             NaN             NaN
             NaN             NaN             NaN
             NaN             NaN             NaN
             NaN             NaN             NaN
             NaN             NaN             NaN
             NaN             NaN             NaN
             NaN             NaN             NaN
             NaN             NaN             NaN
             NaN             NaN             NaN
             NaN             NaN             NaN
             NaN             NaN             NaN
             NaN             NaN             NaN
             NaN             NaN             NaN
             NaN             NaN             NaN
             NaN             NaN             NaN
             NaN             NaN             NaN
             NaN             NaN             NaN
             NaN             NaN             NaN
             NaN             NaN             NaN
             NaN             NaN             NaN
             NaN             NaN             NaN
             NaN             NaN             NaN
             NaN             NaN             NaN
             NaN             NaN             NaN
             NaN             NaN             NaN
             NaN             NaN             NaN
             NaN             NaN             NaN
             NaN             NaN             NaN
             NaN             NaN             NaN
             NaN             NaN             NaN
             NaN             NaN             NaN
             NaN             NaN             NaN
             NaN             NaN             NaN
             NaN             NaN             NaN
             NaN             NaN             NaN
             NaN             NaN             NaN
             NaN             NaN             NaN
             NaN             NaN             NaN
             NaN             NaN             NaN
             NaN             NaN             NaN
             NaN             NaN             NaN
             NaN             NaN             NaN
             NaN             NaN             NaN
             NaN             NaN             NaN
             NaN             NaN             NaN
             NaN             NaN             NaN
             NaN             NaN             NaN
             NaN             NaN             NaN
             NaN             NaN             NaN
             NaN             NaN             NaN
             NaN             NaN             NaN
             NaN             NaN             NaN
             NaN             NaN             NaN
             NaN             NaN             NaN
             NaN             NaN             NaN
             NaN             NaN             NaN
             NaN             NaN             NaN
             NaN             NaN             NaN
             NaN             NaN             NaN
             NaN             NaN             NaN
             NaN             NaN             NaN
             NaN             NaN             NaN
             NaN             NaN             NaN
             NaN             NaN             NaN
             NaN             NaN             NaN
             NaN             NaN             NaN
             NaN             NaN             NaN
             NaN             NaN             NaN
             NaN             NaN             NaN
             NaN             NaN             NaN
             NaN             NaN             NaN
             NaN             NaN             NaN
             NaN             NaN             NaN
             NaN             NaN             NaN
             NaN             NaN             NaN
             NaN             NaN             NaN
             NaN             NaN             NaN
             NaN             NaN             NaN
             NaN             NaN             NaN
             NaN             NaN             NaN
             NaN             NaN             NaN
             NaN             NaN             NaN
             NaN             NaN             NaN
             NaN             NaN             NaN
             NaN             NaN             NaN
             NaN             NaN             NaN
             NaN             NaN             NaN
             NaN             NaN             NaN
             NaN             NaN             NaN
             NaN             NaN             NaN
             NaN             NaN             NaN
             NaN             NaN             NaN
             NaN             NaN             NaN
             NaN             NaN             NaN
             NaN             NaN             NaN
             NaN             NaN             NaN
             NaN             NaN             NaN
             NaN             NaN             NaN
             NaN             NaN             NaN
             NaN             NaN             NaN
             NaN             NaN             NaN
             NaN             NaN             NaN
             NaN             NaN             NaN
             NaN             NaN             NaN
             NaN             NaN             NaN
             NaN             NaN             NaN
             NaN             NaN             NaN
             NaN             NaN             NaN
             NaN             NaN             NaN
