C    H    Li                            
   1.0000000000000000     
    37.2234382628999967    0.0000000000000000    0.0000000000000000
     0.0000000000000000    8.5469398498999993    0.0000000000000000
     0.0000000000000000    0.0000000000000000   27.8030738831000015
   C    H    Li
   104    16     1
Direct
  0.4668108403741141  0.0034546977899228  0.4360187136021799
  0.4668113532582622  0.5034555281239821  0.4360184364906706
  0.4337296480214162  0.2534215944266286  0.4360099607803266
  0.4337294101327584  0.7534207260130649  0.4360121776815605
  0.3342339517561831  0.0031378136424724  0.4360816353083415
  0.3342293690246818  0.5031419432763652  0.4360891382705992
  0.3018051780012940  0.2569731111156974  0.4363598893891367
  0.3018106158226545  0.7569738730866576  0.4363149730065600
  0.4006002129448984  0.0039636231746964  0.4360033386661287
  0.4005981842893685  0.5039564299091712  0.4360021522075505
  0.3673117954203592  0.2535307431928247  0.4359981637759307
  0.3673178242021951  0.7535307232061883  0.4359964273956548
  0.4668091735284186  0.9965397335491651  0.5639810605394006
  0.4668099570551700  0.4965401916405459  0.5639808194881306
  0.4337282209869593  0.2465754251006203  0.5639870544390999
  0.4337281340122229  0.7465727446767428  0.5639876518123376
  0.3342311670162592  0.9968550359465351  0.5639189895222657
  0.3342299716685124  0.4968556317026886  0.5639102344208587
  0.3018026517886359  0.2430248573004475  0.5636550432060978
  0.3018096651751319  0.7430177165615395  0.5636740367241770
  0.4005984376978146  0.9960375057054369  0.5639963030519677
  0.4005976168760089  0.4960334233977932  0.5639940877717865
  0.3673100330229460  0.2464656047133229  0.5639997308970651
  0.3673164138264775  0.7464640692581422  0.5640032822875090
  0.4668082735963219  0.1702567609506480  0.4360130801847384
  0.4668077419847663  0.6702575649577965  0.4360136249792975
  0.4337278070328240  0.4203911710410588  0.4360004301626879
  0.4337274746911997  0.9203923257704552  0.4360024080053166
  0.3342365472329142  0.1709214409312091  0.4360830013188877
  0.3342420460183390  0.6709266499863148  0.4360736850946728
  0.3017917768964737  0.4170980970035941  0.4363191874761204
  0.3017962382358936  0.9171003481685017  0.4362759627004335
  0.4005961126284893  0.1699907673295156  0.4359868680410330
  0.4005984732138306  0.6699836964796840  0.4359887347333238
  0.3673073248523732  0.4204820692520401  0.4359973292901582
  0.3673128425802315  0.9204826846089608  0.4359956127472933
  0.3017925166198459  0.0829005465952860  0.5637025638980462
  0.3017908438660901  0.5828889482095960  0.5637045780303356
  0.4668072072655202  0.3297380133847372  0.5639859278668955
  0.4668061531867849  0.8297376516609518  0.5639862926585890
  0.3673083202455280  0.0795149111255643  0.5640033399587417
  0.3673083620321532  0.5795108637905695  0.5640010419948913
  0.3342334826222368  0.3290736147688719  0.5639156978394534
  0.3342403405006805  0.8290680327127357  0.5639284608337883
  0.4337258173893425  0.0796057790613253  0.5639973456517986
  0.4337257697272275  0.5796012235460742  0.5639971625852505
  0.4005936220996758  0.3300064930938249  0.5640087776886193
  0.4005968119880927  0.8300092198289948  0.5640111525414341
  0.5331609055386435  0.9965344013733601  0.5639777738627820
  0.5331602095474903  0.4965352779854362  0.5639776420280691
  0.5662413357669451  0.7465655668513960  0.5639825238414741
  0.5662401696149489  0.2465671426088907  0.5639826146082639
  0.6657325982959932  0.9968432785542698  0.5639314296596742
  0.6657333272620189  0.4968437454956711  0.5639295600541825
  0.6981553215986801  0.7430098052793842  0.5636987333440975
  0.6981565463809424  0.2430077215656840  0.5637050022484087
  0.4999851150165064  0.7463027402722572  0.5639640283784373
  0.4999849561895663  0.2463000191397070  0.5639638859831093
  0.5993690434236800  0.9960256281800152  0.5639881738979875
  0.5993692340873976  0.4960236044790386  0.5639882169078102
  0.6326512269182361  0.7464521006747772  0.5640040525834062
  0.6326528359487973  0.2464530988786926  0.5640050581217851
  0.5331624932147681  0.0034587802290874  0.4360222845365804
  0.5331616801494367  0.5034601816234120  0.4360225338882739
  0.5662429850214675  0.7534274344564854  0.4360172316319247
  0.5662417411069706  0.2534276538616127  0.4360170585804213
  0.6657341419718047  0.0031477897912490  0.4360691877511117
  0.6657351884257485  0.5031487803419697  0.4360694570021837
  0.6981566913299857  0.7569828696620255  0.4362964572699171
  0.6981576607210289  0.2569824091847847  0.4363014743695598
  0.4999866661280775  0.7536934968883804  0.4360361110148057
  0.4999865068184293  0.2536931639476723  0.4360362552301819
  0.5993706160115694  0.0039705262580801  0.4360115594388241
  0.5993708174932565  0.5039670976570256  0.4360111607346470
  0.6326526537780487  0.7535400608077665  0.4359951121190949
  0.6326542314310172  0.2535403512167486  0.4359954130082481
  0.5331646495461566  0.8297348969983498  0.5639841690205587
  0.5331631338207983  0.3297352552401580  0.5639841116298303
  0.5662435931966815  0.5795959687754622  0.5639913329546914
  0.5662435923274817  0.0795979313285069  0.5639913824126815
  0.6657246829531616  0.8290593891642569  0.5639381219272670
  0.6657264555146895  0.3290595980576400  0.5639396690852102
  0.6981703319899728  0.5828840146797999  0.5637377947398078
  0.6981701387066678  0.0828815217990260  0.5637441438148320
  0.4999856654475071  0.5800193057150937  0.5639766488658701
  0.4999856189384680  0.0800165762861475  0.5639766972856048
  0.5993716797794949  0.8300000677455904  0.5640035686647276
  0.5993720606113416  0.3299989215462330  0.5640037497689050
  0.6326568821261873  0.5795025041153458  0.5640051896504481
  0.6326567843471402  0.0795038469130502  0.5640061841774924
  0.6981711616723114  0.9171083690431648  0.4362578041444292
  0.6981720882294647  0.4171086952196900  0.4362617153132872
  0.4999869310562315  0.9199763504476162  0.4360232928649714
  0.4999868155227819  0.4199769363725849  0.4360235158067942
  0.5331655169213607  0.6702599491314057  0.4360159895134870
  0.5331645571580711  0.1702585500589539  0.4360160782226498
  0.6326574204955413  0.9204898597166475  0.4359941620712515
  0.6326589442595271  0.4204894657083151  0.4359940948979704
  0.6657260827999109  0.6709330938228464  0.4360606448632661
  0.6657272108545288  0.1709320633243645  0.4360622071854007
  0.5662450326048953  0.9203972073161100  0.4360084655905179
  0.5662438591119684  0.4203967719027529  0.4360083297629566
  0.5993727717077257  0.6699921984822580  0.4359958588772391
  0.5993729848404376  0.1699955780369980  0.4359957191153120
  0.7238953058990206  0.9776194960212048  0.4365457627612403
  0.7238964390805247  0.4776179050789525  0.4365530259844435
  0.7238649827193832  0.8036211921399967  0.5633398337772537
  0.7238668095261913  0.3036148373982381  0.5633516359980215
  0.7238663183489512  0.6963710551180632  0.4366505163851198
  0.7238674549869691  0.1963723198485020  0.4366603986985780
  0.7238939187618042  0.0223678987185885  0.5634575464884706
  0.7238944926627444  0.5223733292846804  0.5634457845426492
  0.2760648567427896  0.0223992290431035  0.5633861655583297
  0.2760624462427599  0.5223787540326528  0.5633836812570613
  0.2760845613330837  0.1964096300129836  0.4367757576978304
  0.2761015472054453  0.6963415038768639  0.4366782066024970
  0.2760812914479167  0.3035983597224404  0.5632511581893724
  0.2761001003025934  0.8036406471213383  0.5633030881223033
  0.2760726445097624  0.9776328884851591  0.4365702094061736
  0.2760571524560264  0.4775658900142861  0.4366656382542092
  0.1525422062670635  0.3313882163653916  0.4999886534392477

             NaN             NaN             NaN
             NaN             NaN             NaN
             NaN             NaN             NaN
             NaN             NaN             NaN
             NaN             NaN             NaN
             NaN             NaN             NaN
             NaN             NaN             NaN
             NaN             NaN             NaN
             NaN             NaN             NaN
             NaN             NaN             NaN
             NaN             NaN             NaN
             NaN             NaN             NaN
             NaN             NaN             NaN
             NaN             NaN             NaN
             NaN             NaN             NaN
             NaN             NaN             NaN
             NaN             NaN             NaN
             NaN             NaN             NaN
             NaN             NaN             NaN
             NaN             NaN             NaN
             NaN             NaN             NaN
             NaN             NaN             NaN
             NaN             NaN             NaN
             NaN             NaN             NaN
             NaN             NaN             NaN
             NaN             NaN             NaN
             NaN             NaN             NaN
             NaN             NaN             NaN
             NaN             NaN             NaN
             NaN             NaN             NaN
             NaN             NaN             NaN
             NaN             NaN             NaN
             NaN             NaN             NaN
             NaN             NaN             NaN
             NaN             NaN             NaN
             NaN             NaN             NaN
             NaN             NaN             NaN
             NaN             NaN             NaN
             NaN             NaN             NaN
             NaN             NaN             NaN
             NaN             NaN             NaN
             NaN             NaN             NaN
             NaN             NaN             NaN
             NaN             NaN             NaN
             NaN             NaN             NaN
             NaN             NaN             NaN
             NaN             NaN             NaN
             NaN             NaN             NaN
             NaN             NaN             NaN
             NaN             NaN             NaN
             NaN             NaN             NaN
             NaN             NaN             NaN
             NaN             NaN             NaN
             NaN             NaN             NaN
             NaN             NaN             NaN
             NaN             NaN             NaN
             NaN             NaN             NaN
             NaN             NaN             NaN
             NaN             NaN             NaN
             NaN             NaN             NaN
             NaN             NaN             NaN
             NaN             NaN             NaN
             NaN             NaN             NaN
             NaN             NaN             NaN
             NaN             NaN             NaN
             NaN             NaN             NaN
             NaN             NaN             NaN
             NaN             NaN             NaN
             NaN             NaN             NaN
             NaN             NaN             NaN
             NaN             NaN             NaN
             NaN             NaN             NaN
             NaN             NaN             NaN
             NaN             NaN             NaN
             NaN             NaN             NaN
             NaN             NaN             NaN
             NaN             NaN             NaN
             NaN             NaN             NaN
             NaN             NaN             NaN
             NaN             NaN             NaN
             NaN             NaN             NaN
             NaN             NaN             NaN
             NaN             NaN             NaN
             NaN             NaN             NaN
             NaN             NaN             NaN
             NaN             NaN             NaN
             NaN             NaN             NaN
             NaN             NaN             NaN
             NaN             NaN             NaN
             NaN             NaN             NaN
             NaN             NaN             NaN
             NaN             NaN             NaN
             NaN             NaN             NaN
             NaN             NaN             NaN
             NaN             NaN             NaN
             NaN             NaN             NaN
             NaN             NaN             NaN
             NaN             NaN             NaN
             NaN             NaN             NaN
             NaN             NaN             NaN
             NaN             NaN             NaN
             NaN             NaN             NaN
             NaN             NaN             NaN
             NaN             NaN             NaN
             NaN             NaN             NaN
             NaN             NaN             NaN
             NaN             NaN             NaN
             NaN             NaN             NaN
             NaN             NaN             NaN
             NaN             NaN             NaN
             NaN             NaN             NaN
             NaN             NaN             NaN
             NaN             NaN             NaN
             NaN             NaN             NaN
             NaN             NaN             NaN
             NaN             NaN             NaN
             NaN             NaN             NaN
             NaN             NaN             NaN
             NaN             NaN             NaN
             NaN             NaN             NaN
             NaN             NaN             NaN
