C    Li                                 
   1.0000000000000000     
    14.8037481308000007    0.0000000000000000    0.0000000000000000
    -7.4018740654000004   12.8204219525000003    0.0000000000000000
     0.0000000000000000    0.0000000000000000   27.8030738831000015
   C    Li
   143     1
Direct
  0.9998168353668111  0.9998634864992930  0.4358261097074826
  0.9998181718061367  0.4998640727761480  0.4358928405046337
  0.4998342283274222  0.9998790596903866  0.4352493331480879
  0.4998187455903204  0.4998905654178703  0.4358390551282953
  0.9998224987189827  0.1665389207759075  0.4361144630844490
  0.9998044761770228  0.6665248927519168  0.4356694884758011
  0.4998259475091119  0.1665430745922285  0.4368647159798159
  0.4998494540779276  0.6665213258510070  0.4338092985161371
  0.9998249336284026  0.3332046428427285  0.4360695402322380
  0.9998016130178282  0.8331881495800448  0.4355621422149866
  0.4998275933540812  0.3332445208164625  0.4374062685734625
  0.4998387714636114  0.8332075837188748  0.4339402389724979
  0.1664870870503221  0.9998694002411187  0.4362378258977309
  0.1664987133552970  0.4998701949205420  0.4352975475961801
  0.6665023810627266  0.9998861914449336  0.4347469206377950
  0.6664574388686951  0.4998829064915356  0.4366275492866100
  0.1664865593060095  0.1665408554313185  0.4367979514263597
  0.1664857584672529  0.6665283136780061  0.4350404972389675
  0.6664925808145039  0.1665409678132489  0.4360971772491996
  0.6664410663797266  0.6665145949725075  0.4349433296622753
  0.1664962620310968  0.3332071191548900  0.4362507306875563
  0.1664818009641512  0.8331948213284323  0.4354129591757241
  0.6664907846896579  0.3332127259059848  0.4370644924994292
  0.6665108636657866  0.8332165318122446  0.4340903254263224
  0.3331542006036011  0.9998677590256169  0.4360055572860529
  0.3331702864784213  0.4998571625867546  0.4349770067705124
  0.8331626358270464  0.9998782222883583  0.4351052687636396
  0.8331377162793732  0.4998687801988374  0.4364639850287275
  0.3331629888352534  0.1665504449074075  0.4371971514109694
  0.3331725895492079  0.6665208474269114  0.4341380375162154
  0.8331589128420799  0.1665421653237167  0.4357396101318071
  0.8331154378860525  0.6665169830431270  0.4357645844250670
  0.3331763798477346  0.3332552151042535  0.4369041980185482
  0.3331619646018286  0.8332059722100954  0.4347022858983601
  0.8331591600772918  0.3332092765284544  0.4363777942062690
  0.8331412725053949  0.8331969947278769  0.4350271432747011
  0.0004519960239432 -0.0000077865656316  0.5633970346130055
  0.0006863079041708  0.5006405856439986  0.5638121656366968
  0.5012329984888113  0.0005408461609654  0.5616762001840214
  0.0025931271270200  0.1681790125049235  0.5647606055166720
  0.9993731905334303  0.6665355057419873  0.5633792000161959
  0.5009364987393309  0.1641458263783435  0.5669371348119664
  0.5013424533912340  0.6722209179806604  0.5516513987531295
  0.0027543564580336  0.3346922897780208  0.5639503700313542
  0.9993169807969997  0.8327040214160447  0.5626484334950814
  0.4999429462820484  0.3258971560442782  0.5793072568596584
  0.5014099232461955  0.8364346819702888  0.5586765238426780
  0.1664144404873063  0.9988991160965237  0.5642323069889149
  0.1685520458332671  0.5012567037750052  0.5627386599716727
  0.6685247602298042  0.0017321727856029  0.5608365466336169
  0.6624881804253367  0.4986000374514468  0.5681797379629130
  0.1673763771914394  0.1658315653780429  0.5673889443375912
  0.1668782675990541  0.6672067124794943  0.5619954414707633
  0.6683710155493459  0.1673941634732714  0.5640118572048327
  0.6642988736650259  0.6659346437720507  0.5608895169362301
  0.1712583557922276  0.3353559217970669  0.5666358460786658
  0.1663193691484209  0.8329175245658270  0.5623122081421194
  0.6673700438350829  0.3330617674491745  0.5688308361283977
  0.6680995221458541  0.8354352346698480  0.5586263522884792
  0.3334874367681399  0.9990251813301388  0.5634900165907230
  0.3377501655476797  0.5024735615045293  0.5581629536309182
  0.8351465786091180  0.0015088816373082  0.5620542890712745
  0.8325774017832472  0.4999711431488909  0.5657962911433434
  0.3332497060619346  0.1636388678297866  0.5706444583938418
  0.3342019841594348  0.6685131780055270  0.5581193630869088
  0.8356053009946451  0.1681070211243204  0.5631474061766942
  0.8316399987787724  0.6659320775831098  0.5638390623085572
  0.3352735472181910  0.3304390278758890  0.5765019787359111
  0.3337037188412870  0.8339476216306283  0.5606437431132648
  0.8349086438040262  0.3341833752227296  0.5644346108967639
  0.8331492414722860  0.8335189167448739  0.5615621770198277
  0.0553778533274621  0.1109820296219253  0.4362631911199999
  0.0553677616513759  0.6109732557887474  0.4355394097152516
  0.5553834926168334  0.1109927345974154  0.4360900894143452
  0.5553674141461701  0.6109611802178078  0.4346565295051155
  0.0553863531481489  0.2776549735901111  0.4361978922037426
  0.0553614285748389  0.7776331378792684  0.4355065226050207
  0.5553714952843731  0.2776654059465876  0.4372970049216465
  0.5553842691980360  0.7776278749183120  0.4337125828231952
  0.0553768430929365  0.4443161729782948  0.4358001582718686
  0.0553689259937015  0.9443066558122917  0.4358415293076353
  0.5553486076504838  0.4443566832489670  0.4368021504664064
  0.5553885219799214  0.9443291291083231  0.4345163386595308
  0.2220438092814806  0.1109791548619848  0.4368271301777019
  0.2220452231427071  0.6109750034150799  0.4347498572947613
  0.7220406069626522  0.1109847839933259  0.4354802210890900
  0.7220029808441424  0.6109670146596490  0.4358271449597763
  0.2220529912908187  0.2776638692007340  0.4367713994702470
  0.2220404594530213  0.7776469851163079  0.4349858716438432
  0.7220388272832969  0.2776574980225642  0.4365982713872404
  0.7220321373128057  0.7776392225551899  0.4345317146798836
  0.2220763527659384  0.4443277200197255  0.4354890977984714
  0.2220414840322453  0.9443107256501536  0.4358657080810391
  0.7220237187186614  0.4443319608310970  0.4368775877728676
  0.7220519391513350  0.9443192414256681  0.4345120745029912
  0.3887100388830189  0.1109828282001394  0.4367782534042917
  0.3887289303796356  0.6109577494308370  0.4340609660808938
  0.8887068394002895  0.1109872771852819  0.4356179583957664
  0.8886857845614756  0.6109735219458965  0.4360211748394900
  0.3887223202327382  0.2776725608122276  0.4373921675881065
  0.3887229024053809  0.7776559173184446  0.4341063922873708
  0.8887121606178328  0.2776522719274980  0.4360969038009651
  0.8886910443085826  0.7776333412538250  0.4353952590877559
  0.3887252291472457  0.4443281143115951  0.4358991410060075
  0.3887163418897036  0.9443235397657193  0.4352530460486594
  0.8886981054596526  0.4443138656142683  0.4363176214834608
  0.8887073595529471  0.9443139988753230  0.4352360455827106
  0.1113994238046777  0.0549069919874166  0.5648167691349862
  0.1120196831931913  0.5562685767315690  0.5629316414431388
  0.6125268897040076  0.0565485634659522  0.5620187400856462
  0.6101710081365730  0.5566740823291307  0.5655525367531637
  0.1137808401896424  0.2233681615723559  0.5669437765448386
  0.1106772025026771  0.7220956766716221  0.5625075535385521
  0.6121996583798599  0.2216142629218154  0.5669136447630854
  0.6127244469454500  0.7257799836715046  0.5562774199928621
  0.1141954701877806  0.3902030256246690  0.5640718666746175
  0.1105365690218905  0.8880952253467684  0.5628222198169326
  0.6111428078335799  0.3868048953122691  0.5732801481178857
  0.6126034138076394  0.8912918738135669  0.5589175770690850
  0.2774259140261932  0.0536384706388651  0.5658247906707801
  0.2796421912816369  0.5573931235628657  0.5598281577952547
  0.7798081255271729  0.0572029533601566  0.5619881384563984
  0.7755772888595076  0.5548124111025284  0.5659195130492716
  0.2828761337784660  0.3903716314911431  0.5678852948810696
  0.2775520790854549  0.8884830205797845  0.5619177802429038
  0.7786304440182611  0.3890666186092077  0.5660538624088833
  0.7792836940614670  0.8905735641281639  0.5609127595232195
  0.4448313062110928  0.0542910124175178  0.5635053699293070
  0.4449482410475917  0.5658618906583823  0.5458555243552364
  0.9462810441233411  0.0567962307932201  0.5634885047898927
  0.9440713303588494  0.5556141285857545  0.5642578365338385
  0.4443543493086186  0.2166939577931770  0.5722662100418755
  0.4451521849573510  0.7264784323160025  0.5561049778386464
  0.9468868841381467  0.2236116972733643  0.5640031921060533
  0.9433647054920579  0.7216307034845516  0.5631951497866350
  0.4413832372174648  0.3717518941921702  0.5882439823415865
  0.4450657883200015  0.8902651365882972  0.5603754915504874
  0.9462725241583646  0.3897794281696243  0.5639261516436584
  0.9443139325408312  0.8887323004049764  0.5624744861298817
  0.2777654153403583  0.2193230003547000  0.5715525274733246
  0.2778972093552738  0.7231492052932212  0.5603038591300176
  0.7796801911221551  0.2232195367142825  0.5637967406010108
  0.7767088414814609  0.7220001385994825  0.5622108134122175
  0.4624762447879242  0.4979400170826433  0.5940394236749106

             NaN             NaN             NaN
             NaN             NaN             NaN
             NaN             NaN             NaN
             NaN             NaN             NaN
             NaN             NaN             NaN
             NaN             NaN             NaN
             NaN             NaN             NaN
             NaN             NaN             NaN
             NaN             NaN             NaN
             NaN             NaN             NaN
             NaN             NaN             NaN
             NaN             NaN             NaN
             NaN             NaN             NaN
             NaN             NaN             NaN
             NaN             NaN             NaN
             NaN             NaN             NaN
             NaN             NaN             NaN
             NaN             NaN             NaN
             NaN             NaN             NaN
             NaN             NaN             NaN
             NaN             NaN             NaN
             NaN             NaN             NaN
             NaN             NaN             NaN
             NaN             NaN             NaN
             NaN             NaN             NaN
             NaN             NaN             NaN
             NaN             NaN             NaN
             NaN             NaN             NaN
             NaN             NaN             NaN
             NaN             NaN             NaN
             NaN             NaN             NaN
             NaN             NaN             NaN
             NaN             NaN             NaN
             NaN             NaN             NaN
             NaN             NaN             NaN
             NaN             NaN             NaN
             NaN             NaN             NaN
             NaN             NaN             NaN
             NaN             NaN             NaN
             NaN             NaN             NaN
             NaN             NaN             NaN
             NaN             NaN             NaN
             NaN             NaN             NaN
             NaN             NaN             NaN
             NaN             NaN             NaN
             NaN             NaN             NaN
             NaN             NaN             NaN
             NaN             NaN             NaN
             NaN             NaN             NaN
             NaN             NaN             NaN
             NaN             NaN             NaN
             NaN             NaN             NaN
             NaN             NaN             NaN
             NaN             NaN             NaN
             NaN             NaN             NaN
             NaN             NaN             NaN
             NaN             NaN             NaN
             NaN             NaN             NaN
             NaN             NaN             NaN
             NaN             NaN             NaN
             NaN             NaN             NaN
             NaN             NaN             NaN
             NaN             NaN             NaN
             NaN             NaN             NaN
             NaN             NaN             NaN
             NaN             NaN             NaN
             NaN             NaN             NaN
             NaN             NaN             NaN
             NaN             NaN             NaN
             NaN             NaN             NaN
             NaN             NaN             NaN
             NaN             NaN             NaN
             NaN             NaN             NaN
             NaN             NaN             NaN
             NaN             NaN             NaN
             NaN             NaN             NaN
             NaN             NaN             NaN
             NaN             NaN             NaN
             NaN             NaN             NaN
             NaN             NaN             NaN
             NaN             NaN             NaN
             NaN             NaN             NaN
             NaN             NaN             NaN
             NaN             NaN             NaN
             NaN             NaN             NaN
             NaN             NaN             NaN
             NaN             NaN             NaN
             NaN             NaN             NaN
             NaN             NaN             NaN
             NaN             NaN             NaN
             NaN             NaN             NaN
             NaN             NaN             NaN
             NaN             NaN             NaN
             NaN             NaN             NaN
             NaN             NaN             NaN
             NaN             NaN             NaN
             NaN             NaN             NaN
             NaN             NaN             NaN
             NaN             NaN             NaN
             NaN             NaN             NaN
             NaN             NaN             NaN
             NaN             NaN             NaN
             NaN             NaN             NaN
             NaN             NaN             NaN
             NaN             NaN             NaN
             NaN             NaN             NaN
             NaN             NaN             NaN
             NaN             NaN             NaN
             NaN             NaN             NaN
             NaN             NaN             NaN
             NaN             NaN             NaN
             NaN             NaN             NaN
             NaN             NaN             NaN
             NaN             NaN             NaN
             NaN             NaN             NaN
             NaN             NaN             NaN
             NaN             NaN             NaN
             NaN             NaN             NaN
             NaN             NaN             NaN
             NaN             NaN             NaN
             NaN             NaN             NaN
             NaN             NaN             NaN
             NaN             NaN             NaN
             NaN             NaN             NaN
             NaN             NaN             NaN
             NaN             NaN             NaN
             NaN             NaN             NaN
             NaN             NaN             NaN
             NaN             NaN             NaN
             NaN             NaN             NaN
             NaN             NaN             NaN
             NaN             NaN             NaN
             NaN             NaN             NaN
             NaN             NaN             NaN
             NaN             NaN             NaN
             NaN             NaN             NaN
             NaN             NaN             NaN
             NaN             NaN             NaN
             NaN             NaN             NaN
             NaN             NaN             NaN
             NaN             NaN             NaN
             NaN             NaN             NaN
             NaN             NaN             NaN
             NaN             NaN             NaN
