C    Li
   1.0000000000000000     
  14.8037481308000007   0.0000000000000000   0.0000000000000000
  -7.4018740654000004  12.8204219525000003   0.0000000000000000
   0.0000000000000000   0.0000000000000000  27.8030738831000015
C    Li
143  1  
Direct
  0.9998360334605320  0.9998698665485080  0.4357624891129670  
  0.9998327728384599  0.4998694867525230  0.4359292315815610  
  0.4998499956139140  0.9998832463052379  0.4352433658441090  
  0.4998471285245860  0.4999041329529130  0.4359275413648690  
  0.9998377868972600  0.1665429311532660  0.4361026361789020  
  0.9998226853142500  0.6665329781468330  0.4356634849587100  
  0.4998438970268070  0.1665462343767390  0.4368148447965230  
  0.4998667205197760  0.6665296215071590  0.4339505513847680  
  0.9998371491279340  0.3332075915607150  0.4361035534318840  
  0.9998225483159900  0.8331967216403060  0.4355051172900350  
  0.4998502082761150  0.3332437759370140  0.4373897694759630  
  0.4998535474592320  0.8332118112175591  0.4340126326109800  
  0.1665048897649870  0.9998753651922950  0.4361542724714410  
  0.1665102550562880  0.4998746497247100  0.4354071122245600  
  0.6665169653690910  0.9998903698143740  0.4347628347679870  
  0.6664883741974070  0.4998929853622370  0.4366366620806800  
  0.1665017966278980  0.1665431200717790  0.4367500776423160  
  0.1665020527891340  0.6665364373778710  0.4351005947321410  
  0.6665081360260390  0.1665453274801860  0.4360738320071110  
  0.6664663283989110  0.6665256477419700  0.4350020085196890  
  0.1665078308314070  0.3332106989292140  0.4363080593088990  
  0.1665019672831250  0.8332034268145990  0.4353786731527690  
  0.6665093824536900  0.3332161093795140  0.4370342756893780  
  0.6665255093966140  0.8332203469635640  0.4341438945167370  
  0.3331712152793780  0.9998724771521880  0.4359501742375040  
  0.3331839047275910  0.4998719263916910  0.4351334753656740  
  0.8331782206809140  0.9998821013148390  0.4350964389170500  
  0.8331570565181891  0.4998749993208090  0.4364550292193880  
  0.3331781368558780  0.1665479588210420  0.4371342723863730  
  0.3331857000898000  0.6665266484698550  0.4342657426675700  
  0.8331741540033160  0.1665457680124970  0.4357348565848300  
  0.8331388243162370  0.6665267111035010  0.4357538765752840  
  0.3331871406299950  0.3332513020542580  0.4369369481265370  
  0.3331792501375550  0.8332107425974510  0.4347311427926290  
  0.8331731713210860  0.3332126531614610  0.4363706729492800  
  0.8331616874034040  0.8332045921876770  0.4350142944821940  
  0.0004646734966514  0.0000548503058155  0.5632348808935110  
  0.0006485588359197  0.5006532229114740  0.5638095077820821  
  0.5012147480257100  0.0007348704770251  0.5615633884856021  
  0.0025602230613018  0.1682251890520090  0.5646872076561280  
  0.9993877629847530  0.6665617344999220  0.5633172130136260  
  0.5008982549158960  0.1644085559473400  0.5666419512773830  
  0.5017360695726080  0.6730832323808040  0.5523893456211511  
  0.0027364554231255  0.3347279967654020  0.5639596125054210  
  0.9993535951756560  0.8327561141496030  0.5625189899483020  
  0.4997715617348750  0.3261048342843580  0.5798905067540970  
  0.5014623699420970  0.8367565036878450  0.5587895297945810  
  0.1663997244584290  0.9989198538627519  0.5640261566274840  
  0.1684993105981080  0.5012776364152530  0.5629654557854380  
  0.6685351569353200  0.0019007560690269  0.5607893147794060  
  0.6626415372811250  0.4989660442246730  0.5685190691582850  
  0.1672523752093300  0.1657724066984440  0.5672764985511241  
  0.1668740249328660  0.6672202863105100  0.5620447073298110  
  0.6683227628279480  0.1675351963307610  0.5638826319197610  
  0.6647388101483140  0.6664327031266590  0.5612444055412170  
  0.1712684251224270  0.3353299974455060  0.5666950763671890  
  0.1663205279642170  0.8329328118243280  0.5622052762929290  
  0.6671764717727060  0.3332095603241070  0.5686838458677530  
  0.6682707772182400  0.8357465910438440  0.5586912243819310  
  0.3334717803701110  0.9990869234955040  0.5632738799359910  
  0.3377928380907920  0.5028433187725410  0.5592445904226790  
  0.8351918146275280  0.0016550921526175  0.5619771927437111  
  0.8325625785530730  0.5000473664758190  0.5657294077324200  
  0.3331893084299650  0.1636417484127930  0.5705198208680500  
  0.3342380673978340  0.6686374407135180  0.5584995955806630  
  0.8355768904313190  0.1682009029066980  0.5630918485423850  
  0.8317466407569820  0.6660726391272290  0.5637806390247631  
  0.3347718737267580  0.3298700937283030  0.5775186345842300  
  0.3337007989458910  0.8340126633536540  0.5606292783904510  
  0.8348211820022370  0.3342534868515730  0.5643741767660519  
  0.8333175210259181  0.8337408423246440  0.5614664631587020  
  0.0553947202188283  0.1109885167726720  0.4362175730999600  
  0.0553848409964530  0.6109806900949550  0.4355714879403440  
  0.5554002301075230  0.1109960068163430  0.4360594125457600  
  0.5553926836686860  0.6109797096171971  0.4347683588095280  
  0.0553993959236649  0.2776589599855160  0.4362238925531230  
  0.0553802012921807  0.7776404012373210  0.4354716105913570  
  0.5553926801892860  0.2776662671021770  0.4372579843560800  
  0.5554004453104400  0.7776347463624870  0.4338077942729230  
  0.0553916240699266  0.4443194952234320  0.4358643941570930  
  0.0553876682555412  0.9443141016840499  0.4357618457915250  
  0.5553786264926330  0.4443617005059930  0.4368276560055900  
  0.5554020969276510  0.9443304339704068  0.4345443823627380  
  0.2220585964778860  0.1109831128607230  0.4367503913888270  
  0.2220580942796030  0.6109786196004520  0.4348647285877970  
  0.7220575278625960  0.1109891432175440  0.4354735859373660  
  0.7220270466721670  0.6109779536039920  0.4358478329940070  
  0.2220615081064640  0.2776655053564530  0.4367872140674930  
  0.2220569036656460  0.7776521200073740  0.4350049359490950  
  0.7220562330296471  0.2776617918421070  0.4365685738390890  
  0.7220512799644609  0.7776459405114980  0.4345684631965060  
  0.2220882098566010  0.4443341654922010  0.4356088011848340  
  0.2220580911581460  0.9443176500516870  0.4357987092354140  
  0.7220466159850290  0.4443393499745840  0.4368624170004410  
  0.7220678018737130  0.9443234398365660  0.4345332390978880  
  0.3887264707232770  0.1109853206324730  0.4367120003102440  
  0.3887439188043940  0.6109673615442260  0.4342212922175080  
  0.8887236475425270  0.1109907417794460  0.4356070414849500  
  0.8887053565251430  0.6109815403494920  0.4360099367681020  
  0.3887367791494540  0.2776712907653970  0.4373683397691290  
  0.3887368265196190  0.7776578469513500  0.4341868164462570  
  0.8887285316425630  0.2776573492443860  0.4361018922031900  
  0.8887145833771160  0.7776439792996900  0.4353639136557850  
  0.3887410780655290  0.4443402454640970  0.4360054027959490  
  0.3887311974814550  0.9443259381308590  0.4352396392809080  
  0.8887159465816979  0.4443196650521410  0.4363211966858530  
  0.8887259049767881  0.9443200519819330  0.4352056575791820  
  0.1113673028265440  0.0549027767022281  0.5646126365447020  
  0.1119857827364110  0.5562715218870480  0.5630001631231070  
  0.6125022895783940  0.0566963061698118  0.5619211054089490  
  0.6108095902100100  0.5574725928480790  0.5659249494790189  
  0.1137216124442730  0.2233579650082330  0.5668846274545060  
  0.1106857027434530  0.7221080846067240  0.5624670732725290  
  0.6121369907653720  0.2217671707140520  0.5667036293495040  
  0.6129789444866700  0.7261503957943209  0.5566415412165640  
  0.1141834419274300  0.3902167513115560  0.5641578704881380  
  0.1105456315899080  0.8881142929787980  0.5626691137643580  
  0.6110077602261870  0.3870152628037640  0.5733964631956709  
  0.6126530151107660  0.8915036505176700  0.5589571856195620  
  0.2774080807873100  0.0536672251908428  0.5655699817711050  
  0.2796006910993680  0.5575201407191840  0.5604252412847330  
  0.7798081247632640  0.0573227712738671  0.5619293051758230  
  0.7756578368569510  0.5549646011493290  0.5659525892758380  
  0.2828279094950050  0.3903238785573180  0.5685145585432420  
  0.2775488473068320  0.8885249758136380  0.5617986685474891  
  0.7785124401038740  0.3891410480825290  0.5659525034881840  
  0.7794108019257920  0.8907792696730400  0.5608533360653640  
  0.4448047465777090  0.0544884113105368  0.5632793708777800  
  0.4448386652572790  0.5671037098355640  0.5474405064000790  
  0.9462980416198480  0.0568768879929138  0.5633783165915740  
  0.9440530203354028  0.5556397151404440  0.5642060443079800  
  0.4443089148739150  0.2169513467750830  0.5721326127127070  
  0.4452257176682650  0.7268867531976040  0.5564928076229591  
  0.9468468074584280  0.2236533237881990  0.5639642221802890  
  0.9434217499436670  0.7216912002736110  0.5630942697245230  
  0.4402556899848660  0.3702912743849180  0.5906693854771350  
  0.4450650917560350  0.8904767409935560  0.5603616196686830  
  0.9462134118264270  0.3898036350967260  0.5639254644381499  
  0.9444024026985860  0.8888444070214160  0.5623396380108761  
  0.2775278015741090  0.2191191774531230  0.5716924928529470  
  0.2779033570402660  0.7232072058917400  0.5604084637723620  
  0.7796252688956360  0.2232986950026400  0.5637205403070880  
  0.7769804785636441  0.7223199025877280  0.5621993408985591  
  0.4616259116446740  0.4889529885450020  0.5857313752967390  
