C    H    Li                            
   1.0000000000000000     
    37.0938796996999969    0.0000000000000000    0.0000000000000000
     0.0000000000000000    7.3546423911999996    0.0000000000000000
     0.0000000000000000    0.0000000000000000   27.8030738831000015
   C    H    Li
   108    12     1
Direct
  0.4996098639942760  0.8333553354292590  0.4366399724798644
  0.7306313662314078  0.8333062075872554  0.5632948441775782
  0.3842033285843248  0.8333522755845539  0.4362786902651012
  0.6150526155687391  0.8333533269946679  0.4369087678996334
  0.4419048812394594  0.6666906165379407  0.4364713850316216
  0.6728289902153056  0.6666868579361879  0.4366826840844901
  0.3265171252294204  0.6666845660280275  0.4362461330850801
  0.5573230327907790  0.6666866765312587  0.4368069150707102
  0.4996099128761868  0.1666886951230060  0.4366400377976968
  0.7306312419259200  0.1666396700821469  0.5632947692145148
  0.3842034269969513  0.1666860958870883  0.4362792158170857
  0.6150526441356363  0.1666866858570085  0.4369087799108846
  0.4419048793500838  0.0000238501521557  0.4364712359509986
  0.6728289920108050  0.0000194466107163  0.4366825137269303
  0.3265171298128393  0.0000211392732952  0.4362460334484646
  0.5573230342565908  0.0000198143020510  0.4368065432301084
  0.4996099140374188  0.5000220417394762  0.4366402811078604
  0.7306312472289888  0.4999727332588210  0.5632948772411827
  0.3842034269986383  0.5000185484132639  0.4362793261158165
  0.6150526401747141  0.5000200381067279  0.4369090061540157
  0.4419049198290806  0.3333572609241943  0.4364715545242355
  0.6728290644198380  0.3333531682378221  0.4366826352586644
  0.3265170457245584  0.3333529210858515  0.4362491813065039
  0.5573229913789015  0.3333532910340132  0.4368069640668328
  0.2691923469406200  0.8333591599220014  0.4367031508731669
  0.5002155535321938  0.8332997301772841  0.5632406742664352
  0.3847660736914050  0.8332988828226433  0.5631093027902820
  0.6156198401897753  0.8333052797263227  0.5636488396507252
  0.4424988633759280  0.6666334499492386  0.5630885882095379
  0.6733064840384707  0.6666362389284284  0.5637356808688497
  0.3269871113016356  0.6666354294247329  0.5634023267613965
  0.5579213860505967  0.6666368795076539  0.5634383884256551
  0.2691907928510755  0.1666928751799232  0.4367111462119636
  0.5002154406138800  0.1666332624266460  0.5632405875250709
  0.3847658994987729  0.1666316376917936  0.5631086095391732
  0.6156197772802295  0.1666386802237957  0.5636488036628559
  0.4424988341780143  0.9999664907134680  0.5630887147917196
  0.6733064829880658  0.9999695713026021  0.5637356782973372
  0.3269869123384693  0.9999597380305699  0.5634027833319205
  0.5579213904859215  0.9999702053047967  0.5634384507443793
  0.2691907782600891  0.5000255330060795  0.4367112585407701
  0.5002154560024193  0.4999663312705346  0.5632404772807879
  0.3847658490309834  0.4999671421167722  0.5631084799584097
  0.6156197717612730  0.4999718833262788  0.5636487761867525
  0.4424987274253389  0.3333002175286250  0.5630883183980315
  0.6733066191022088  0.3333029154073430  0.5637356123363946
  0.3269878332764525  0.3332987245661775  0.5634013944389009
  0.5579215730811905  0.3333035434670038  0.5634383188603949
  0.4611382459123944  0.8333565877529220  0.4365220452333072
  0.6919643333037377  0.8333531817614256  0.4365276316899455
  0.3456451435441852  0.8333523249820213  0.4362096976671811
  0.5765578883434385  0.8333532266109241  0.4368569126224859
  0.4034130848708784  0.6666862565733825  0.4363266678237554
  0.6342656765176600  0.6666867509892895  0.4368645408716845
  0.2876388605590628  0.6666922276214057  0.4364709062917108
  0.5188496072259550  0.6666880661771429  0.4366806353838968
  0.4611382429380437  0.1666898565291226  0.4365221312571491
  0.6919640933050141  0.1666861812670204  0.4365274886243088
  0.3456454218083184  0.1666863127716846  0.4362111652809353
  0.5765578418814519  0.1666865447435344  0.4368569002580333
  0.4034130810352959  0.0000195630002724  0.4363265520901113
  0.6342656760293720  0.0000199205814017  0.4368643413183436
  0.2876388634236007  0.0000253641919990  0.4364708124468207
  0.5188496098270249  0.0000213786456532  0.4366803299879978
  0.4611382441994266  0.5000232540131339  0.4365223043834096
  0.6919640969325852  0.5000201696962232  0.4365276588013373
  0.3456454241299660  0.5000182357482306  0.4362112700684291
  0.5765578398391118  0.5000198064869232  0.4368572196861966
  0.4034131905758330  0.3333528696425855  0.4363270709558061
  0.6342657358750923  0.3333533072060703  0.4368644741311546
  0.2876374776134434  0.3333584032074824  0.4364781040876634
  0.5188496927286380  0.3333546785029647  0.4366806527984969
  0.4809771270202078  0.9999657903257558  0.5631951195455437
  0.7121803338793971  0.9999727116099553  0.5635339050207152
  0.3655519587391342  0.9999644361429858  0.5631852295842047
  0.5964100913161807  0.9999717829389654  0.5635898230372922
  0.4232643786164129  0.8332997415976050  0.5630777454921488
  0.6541791674410476  0.8333036101048791  0.5637550331346628
  0.3078529974569088  0.8332999542228737  0.5635807650533893
  0.5386887625643501  0.8333026229747310  0.5633845518470005
  0.4809768094933854  0.3332988841862974  0.5631949375767715
  0.7121801270694650  0.3333060643234945  0.5635338754622136
  0.3655520855805262  0.3332990807095788  0.5631844864903697
  0.5964098929370105  0.3333050385481098  0.5635897647336358
  0.4232642528788381  0.1666325502121609  0.5630773460271382
  0.6541792194567397  0.1666369919605739  0.5637549879370219
  0.3078558445097349  0.1666306733772606  0.5635776160958564
  0.5386888065021836  0.1666360264215893  0.5633845003450011
  0.4809771717456789  0.6666321633546309  0.5631949982190171
  0.7121803385082147  0.6666394179586468  0.5635339547976725
  0.3655518400152052  0.6666339839288309  0.5631849398929230
  0.5964100930208597  0.6666383661531325  0.5635897842088909
  0.4232642425006689  0.4999669263867910  0.5630772416245992
  0.6541792164778313  0.4999702252147784  0.5637549836944274
  0.3078557592191415  0.4999682408329427  0.5635773108708038
  0.5386888343949472  0.4999690274346392  0.5633844223727256
  0.2689708916351183  0.8333044657763976  0.5639175608104430
  0.2689748879030213  0.4999811460751127  0.5639183483434738
  0.2689749566613104  0.1666278742994429  0.5639184169460012
  0.7308440742520191  0.8333536686404153  0.4362319894683634
  0.7308435030608732  0.5000207176194843  0.4362318628961517
  0.7308434987432562  0.1666866211974158  0.4362316871240068
  0.2505145540346864  0.6666339681991970  0.5640758604655829
  0.2505245093242842  0.3333051519329532  0.5640895809440354
  0.2505145629031168  0.9999770329867242  0.5640759279721236
  0.7493063511213461  0.0000209368659405  0.4360999978480239
  0.7493056461661324  0.3333537987277620  0.4360995680987663
  0.7493063549732379  0.6666866756374010  0.4361001879459790
  0.2397248044228391  0.8333551790664508  0.4372901257320999
  0.2397181666873726  0.5000132090693221  0.4373081845183486
  0.2397181621969063  0.1666971249788318  0.4373080223124460
  0.7600959684761336  0.8333046772719199  0.5627177709517790
  0.7600958406840015  0.4999706772676721  0.5627180252283004
  0.7600958328467110  0.1666385454953898  0.5627177434757435
  0.2210305019170165  0.6665919957389767  0.5643122461740496
  0.2210286566208573  0.3333061390719011  0.5643467759771209
  0.2210304819854332  1.0000207952542357  0.5643123045798053
  0.7787824433004928  0.0000241816337934  0.4359030632917047
  0.7787813306235951  0.3333555736898393  0.4359021513219344
  0.7787824469339419  0.6666870496400603  0.4359032700421006
  0.1250190326487154  0.3329492512769405  0.5005142996285605

             NaN             NaN             NaN
             NaN             NaN             NaN
             NaN             NaN             NaN
             NaN             NaN             NaN
             NaN             NaN             NaN
             NaN             NaN             NaN
             NaN             NaN             NaN
             NaN             NaN             NaN
             NaN             NaN             NaN
             NaN             NaN             NaN
             NaN             NaN             NaN
             NaN             NaN             NaN
             NaN             NaN             NaN
             NaN             NaN             NaN
             NaN             NaN             NaN
             NaN             NaN             NaN
             NaN             NaN             NaN
             NaN             NaN             NaN
             NaN             NaN             NaN
             NaN             NaN             NaN
             NaN             NaN             NaN
             NaN             NaN             NaN
             NaN             NaN             NaN
             NaN             NaN             NaN
             NaN             NaN             NaN
             NaN             NaN             NaN
             NaN             NaN             NaN
             NaN             NaN             NaN
             NaN             NaN             NaN
             NaN             NaN             NaN
             NaN             NaN             NaN
             NaN             NaN             NaN
             NaN             NaN             NaN
             NaN             NaN             NaN
             NaN             NaN             NaN
             NaN             NaN             NaN
             NaN             NaN             NaN
             NaN             NaN             NaN
             NaN             NaN             NaN
             NaN             NaN             NaN
             NaN             NaN             NaN
             NaN             NaN             NaN
             NaN             NaN             NaN
             NaN             NaN             NaN
             NaN             NaN             NaN
             NaN             NaN             NaN
             NaN             NaN             NaN
             NaN             NaN             NaN
             NaN             NaN             NaN
             NaN             NaN             NaN
             NaN             NaN             NaN
             NaN             NaN             NaN
             NaN             NaN             NaN
             NaN             NaN             NaN
             NaN             NaN             NaN
             NaN             NaN             NaN
             NaN             NaN             NaN
             NaN             NaN             NaN
             NaN             NaN             NaN
             NaN             NaN             NaN
             NaN             NaN             NaN
             NaN             NaN             NaN
             NaN             NaN             NaN
             NaN             NaN             NaN
             NaN             NaN             NaN
             NaN             NaN             NaN
             NaN             NaN             NaN
             NaN             NaN             NaN
             NaN             NaN             NaN
             NaN             NaN             NaN
             NaN             NaN             NaN
             NaN             NaN             NaN
             NaN             NaN             NaN
             NaN             NaN             NaN
             NaN             NaN             NaN
             NaN             NaN             NaN
             NaN             NaN             NaN
             NaN             NaN             NaN
             NaN             NaN             NaN
             NaN             NaN             NaN
             NaN             NaN             NaN
             NaN             NaN             NaN
             NaN             NaN             NaN
             NaN             NaN             NaN
             NaN             NaN             NaN
             NaN             NaN             NaN
             NaN             NaN             NaN
             NaN             NaN             NaN
             NaN             NaN             NaN
             NaN             NaN             NaN
             NaN             NaN             NaN
             NaN             NaN             NaN
             NaN             NaN             NaN
             NaN             NaN             NaN
             NaN             NaN             NaN
             NaN             NaN             NaN
             NaN             NaN             NaN
             NaN             NaN             NaN
             NaN             NaN             NaN
             NaN             NaN             NaN
             NaN             NaN             NaN
             NaN             NaN             NaN
             NaN             NaN             NaN
             NaN             NaN             NaN
             NaN             NaN             NaN
             NaN             NaN             NaN
             NaN             NaN             NaN
             NaN             NaN             NaN
             NaN             NaN             NaN
             NaN             NaN             NaN
             NaN             NaN             NaN
             NaN             NaN             NaN
             NaN             NaN             NaN
             NaN             NaN             NaN
             NaN             NaN             NaN
             NaN             NaN             NaN
             NaN             NaN             NaN
             NaN             NaN             NaN
             NaN             NaN             NaN
             NaN             NaN             NaN
             NaN             NaN             NaN
