C    H    Li                            
   1.0000000000000000     
    37.0938796996999969    0.0000000000000000    0.0000000000000000
     0.0000000000000000    7.3546423911999996    0.0000000000000000
     0.0000000000000000    0.0000000000000000   27.8030738831000015
   C    H    Li
   108    12     1
Direct
  0.4996171941659084  0.8333508667370398  0.4366414531007817
  0.7306468499317599  0.8333006559549456  0.5633257327361700
  0.3842116699132126  0.8333538776751805  0.4362751001763912
  0.6150566022274661  0.8333598559987063  0.4368650162748155
  0.4419132672132494  0.6666847993497098  0.4364797780526020
  0.6728317478400716  0.6666936517226076  0.4366430625730294
  0.3265256513907902  0.6666885679113739  0.4362131471054988
  0.5573286680006011  0.6666860710232421  0.4367836692179771
  0.4996172409602491  0.1666843179505150  0.4366414802864210
  0.7306466809265040  0.1666340116682112  0.5633255018569081
  0.3842117403123396  0.1666876831441399  0.4362755843598103
  0.6150566331657142  0.1666933181078379  0.4368650169128848
  0.4419132750378925  0.0000182231228331  0.4364792620136587
  0.6728317327155936  0.0000260325468684  0.4366421398585811
  0.3265256464870720  0.0000250735865298  0.4362123522737938
  0.5573286679220840  0.0000194035774133  0.4367829438882964
  0.4996172384827183  0.5000174904801008  0.4366420730292392
  0.7306467065067406  0.4999671132204731  0.5633256984612010
  0.3842117302074912  0.5000201141721345  0.4362761481426873
  0.6150566385047123  0.5000266287012367  0.4368658461029709
  0.4419132568001382  0.3333515476595601  0.4364799100558709
  0.6728318473528362  0.3333599788174061  0.4366430302733086
  0.3265253559415653  0.3333568018525568  0.4362143601139588
  0.5573286089705326  0.3333527976057347  0.4367837040417997
  0.2691999726685375  0.8333580676484910  0.4366438248251761
  0.5002324681182329  0.8332914403079866  0.5632541775304137
  0.3847874245196722  0.8332969798628636  0.5631641272093817
  0.6156352225981193  0.8333056124546766  0.5636429203948459
  0.4425176607660828  0.6666286896484244  0.5631284999828780
  0.6733216181341312  0.6666388122506817  0.5637406136058302
  0.3270139418871417  0.6666387845905947  0.5634627379358076
  0.5579372148314617  0.6666357510988793  0.5634361199217865
  0.2691977157045611  0.1666917203915363  0.4366483442975723
  0.5002323545451410  0.1666249767306469  0.5632541555264390
  0.3847873850811488  0.1666300661182508  0.5631637346927370
  0.6156351000197264  0.1666390521121290  0.5636428747797323
  0.4425177641911053  0.9999606946260038  0.5631294738108534
  0.6733215947527993  0.9999721587909063  0.5637406998760258
  0.3270139618379612  0.9999693563340631  0.5634632599187689
  0.5579372013431145  0.9999690449642722  0.5634364682880363
  0.2691977220837780  0.5000242944608507  0.4366486442231120
  0.5002323557022440  0.4999580137848691  0.5632536449233055
  0.3847872962874153  0.4999641467143183  0.5631629837266136
  0.6156351161581670  0.4999721452112388  0.5636426589805396
  0.4425176600536578  0.3332955646460253  0.5631282601355448
  0.6733217548179301  0.3333055101371437  0.5637404866254614
  0.3270141264410159  0.3333040571370477  0.5634614000484117
  0.5579373772053945  0.3333023616140965  0.5634360057470482
  0.4611447660604899  0.8333512749774553  0.4365298658543583
  0.6919674366432528  0.8333598203924361  0.4364896188097405
  0.3456542548241794  0.8333562989763170  0.4361877284162347
  0.5765627922805234  0.8333537951571159  0.4368248464505074
  0.4034211429608819  0.6666866968413516  0.4363296388396317
  0.6342698606242070  0.6666955478039424  0.4368219746387270
  0.2876478904242356  0.6666898808597351  0.4364186575061753
  0.5188549204328718  0.6666845033608348  0.4366752860326187
  0.4611448031665567  0.1666846072609332  0.4365299488568607
  0.6919671745528760  0.1666926434818763  0.4364894786079438
  0.3456545761750389  0.1666903220737514  0.4361887042707581
  0.5765627698185302  0.1666871136715000  0.4368248421654662
  0.4034211542158639  0.0000200169700008  0.4363290966238724
  0.6342698453584297  0.0000286402218574  0.4368211171958698
  0.2876479083876203  0.0000254863038075  0.4364181737286681
  0.5188549218662565  0.0000177732051044  0.4366746453271808
  0.4611448017483458  0.5000179055173821  0.4365304775068314
  0.6919671941942021  0.5000266946784746  0.4364902996304849
  0.3456545554285814  0.5000221380862069  0.4361893738535738
  0.5765627740751480  0.5000204221928900  0.4368256202024865
  0.4034213070650863  0.3333533248958600  0.4363299494297271
  0.6342699615536715  0.3333620121589436  0.4368219305443437
  0.2876467163227566  0.3333576044416293  0.4364212007323853
  0.5188550719924875  0.3333511199412709  0.4366752875434786
  0.4809954499984048  0.9999592790732099  0.5632174945680848
  0.7121951858988947  0.9999686860897843  0.5635553610538596
  0.3655747724413129  0.9999630178071478  0.5632429978944377
  0.5964258148195939  0.9999718051045251  0.5635842356230000
  0.4232842704798011  0.8332955514497721  0.5631238857107819
  0.6541938371863725  0.8333058402248582  0.5637540662199451
  0.3078792015016842  0.8333053110185258  0.5636339377375141
  0.5387055258904455  0.8333008042836810  0.5633861347820486
  0.4809951561717822  0.3332926139834694  0.5632169486195967
  0.7121949892820562  0.3333019961843751  0.5635552214985886
  0.3655748346167511  0.3332966875834189  0.5632419728570270
  0.5964254329747505  0.3333050282184120  0.5635839069815273
  0.4232843054339235  0.1666286500999998  0.5631236628217405
  0.6541938802990073  0.1666393642891855  0.5637539963739907
  0.3078804050836692  0.1666380911131653  0.5636317063543701
  0.5387055980320536  0.1666342277495672  0.5633860912225664
  0.4809954531935684  0.6666258706726734  0.5632169237634866
  0.7121952254609291  0.6666353415749134  0.5635554182642321
  0.3655747533968062  0.6666306733503178  0.5632423550136157
  0.5964257233988789  0.6666383491764253  0.5635839515850648
  0.4232843157721817  0.4999623978392761  0.5631227633900561
  0.6541938765339942  0.4999724081399108  0.5637538765313780
  0.3078803850936300  0.4999722826390330  0.5636312117441004
  0.5387055829687729  0.4999673950461853  0.5633856977262217
  0.2689987044298143  0.8333084876515500  0.5639628903840808
  0.2690005604975577  0.4999783233011269  0.5639601815069957
  0.2690005764705723  0.1666386271483129  0.5639604922083230
  0.7308465623187493  0.8333599357486086  0.4362053428471821
  0.7308459193875347  0.5000271911439816  0.4362057535793707
  0.7308458405832535  0.1666930898230022  0.4362047725399559
  0.2505408672206115  0.6666390005204447  0.5641158160173405
  0.2505442572779084  0.3333089572260446  0.5641151629778889
  0.2505408809487281  0.9999790918462358  0.5641160272533138
  0.7493089238997833  0.0000273138336542  0.4360795986098480
  0.7493080575455263  0.3333599618236113  0.4360797518527482
  0.7493089407532342  0.6666928872245087  0.4360803106678953
  0.2397333328897874  0.8333608693342356  0.4372231558946109
  0.2397285146480718  0.5000219348832200  0.4372361326074921
  0.2397285023770221  0.1666984004115704  0.4372360919105218
  0.7601113255980663  0.8333014620189217  0.5627564307442583
  0.7601111824391213  0.4999669878141345  0.5627567946183351
  0.7601111534263481  0.1666347507007997  0.5627562966928860
  0.2210592704304024  0.6666142132680000  0.5643502594121577
  0.2210568419728551  0.3333082120477839  0.5643431393258822
  0.2210592737843674  1.0000030573091578  0.5643503021675224
  0.7787849454768958  0.0000295778336370  0.4358995105611682
  0.7787835395398721  0.3333603326012093  0.4358991050219761
  0.7787849692260633  0.6666918602296049  0.4358998075501205
  0.1116558823960169  0.3328822756268756  0.5004136818659086

             NaN             NaN             NaN
             NaN             NaN             NaN
             NaN             NaN             NaN
             NaN             NaN             NaN
             NaN             NaN             NaN
             NaN             NaN             NaN
             NaN             NaN             NaN
             NaN             NaN             NaN
             NaN             NaN             NaN
             NaN             NaN             NaN
             NaN             NaN             NaN
             NaN             NaN             NaN
             NaN             NaN             NaN
             NaN             NaN             NaN
             NaN             NaN             NaN
             NaN             NaN             NaN
             NaN             NaN             NaN
             NaN             NaN             NaN
             NaN             NaN             NaN
             NaN             NaN             NaN
             NaN             NaN             NaN
             NaN             NaN             NaN
             NaN             NaN             NaN
             NaN             NaN             NaN
             NaN             NaN             NaN
             NaN             NaN             NaN
             NaN             NaN             NaN
             NaN             NaN             NaN
             NaN             NaN             NaN
             NaN             NaN             NaN
             NaN             NaN             NaN
             NaN             NaN             NaN
             NaN             NaN             NaN
             NaN             NaN             NaN
             NaN             NaN             NaN
             NaN             NaN             NaN
             NaN             NaN             NaN
             NaN             NaN             NaN
             NaN             NaN             NaN
             NaN             NaN             NaN
             NaN             NaN             NaN
             NaN             NaN             NaN
             NaN             NaN             NaN
             NaN             NaN             NaN
             NaN             NaN             NaN
             NaN             NaN             NaN
             NaN             NaN             NaN
             NaN             NaN             NaN
             NaN             NaN             NaN
             NaN             NaN             NaN
             NaN             NaN             NaN
             NaN             NaN             NaN
             NaN             NaN             NaN
             NaN             NaN             NaN
             NaN             NaN             NaN
             NaN             NaN             NaN
             NaN             NaN             NaN
             NaN             NaN             NaN
             NaN             NaN             NaN
             NaN             NaN             NaN
             NaN             NaN             NaN
             NaN             NaN             NaN
             NaN             NaN             NaN
             NaN             NaN             NaN
             NaN             NaN             NaN
             NaN             NaN             NaN
             NaN             NaN             NaN
             NaN             NaN             NaN
             NaN             NaN             NaN
             NaN             NaN             NaN
             NaN             NaN             NaN
             NaN             NaN             NaN
             NaN             NaN             NaN
             NaN             NaN             NaN
             NaN             NaN             NaN
             NaN             NaN             NaN
             NaN             NaN             NaN
             NaN             NaN             NaN
             NaN             NaN             NaN
             NaN             NaN             NaN
             NaN             NaN             NaN
             NaN             NaN             NaN
             NaN             NaN             NaN
             NaN             NaN             NaN
             NaN             NaN             NaN
             NaN             NaN             NaN
             NaN             NaN             NaN
             NaN             NaN             NaN
             NaN             NaN             NaN
             NaN             NaN             NaN
             NaN             NaN             NaN
             NaN             NaN             NaN
             NaN             NaN             NaN
             NaN             NaN             NaN
             NaN             NaN             NaN
             NaN             NaN             NaN
             NaN             NaN             NaN
             NaN             NaN             NaN
             NaN             NaN             NaN
             NaN             NaN             NaN
             NaN             NaN             NaN
             NaN             NaN             NaN
             NaN             NaN             NaN
             NaN             NaN             NaN
             NaN             NaN             NaN
             NaN             NaN             NaN
             NaN             NaN             NaN
             NaN             NaN             NaN
             NaN             NaN             NaN
             NaN             NaN             NaN
             NaN             NaN             NaN
             NaN             NaN             NaN
             NaN             NaN             NaN
             NaN             NaN             NaN
             NaN             NaN             NaN
             NaN             NaN             NaN
             NaN             NaN             NaN
             NaN             NaN             NaN
             NaN             NaN             NaN
             NaN             NaN             NaN
             NaN             NaN             NaN
