C    H    Li
   1.0000000000000000     
  37.0938796996999969   0.0000000000000000   0.0000000000000000
   0.0000000000000000   7.3546423911999996   0.0000000000000000
   0.0000000000000000   0.0000000000000000  27.8030738831000015
C    H    Li
108  12  1  
Direct
  0.4996230220243940  0.8333459572111440  0.4366253530072510  
  0.7306613365715930  0.8333161023293060  0.5633951490125780  
  0.3842324693536340  0.8333467663472620  0.4362572529969170  
  0.6150570144990229  0.8333518734626040  0.4367451515841410  
  0.4419256862309380  0.6666933026978370  0.4365021051074860  
  0.6728300711229450  0.6666889565441070  0.4365395793323760  
  0.3265451037928320  0.6666921665489480  0.4361674611267430  
  0.5573314242114050  0.6666999866664440  0.4367291279519920  
  0.4996226842516900  0.1667087726649110  0.4366259378926360  
  0.7306611298784630  0.1666207089936050  0.5633947582047010  
  0.3842322586639640  0.1666933503998960  0.4362575040495570  
  0.6150569974417830  0.1667054451354350  0.4367460500916000  
  0.4419271020595590  0.0000192038523039  0.4364726406258010  
  0.6728263349899350  0.0000214552667686  0.4365269427375860  
  0.3265554778749050  0.0000183714091193  0.4361607967652430  
  0.5573302055544360  0.0000221239711493  0.4366988401926620  
  0.4996232123719790  0.5000217037035670  0.4366555974864710  
  0.7306708831420390  0.4999689191110260  0.5634008250641500  
  0.3842262110530750  0.5000191334455200  0.4362811963623940  
  0.6150596606458980  0.5000270093230270  0.4367657489188230  
  0.4419263431644040  0.3333500751130810  0.4365030301980470  
  0.6728309739088160  0.3333664319495280  0.4365402146364160  
  0.3265450710405990  0.3333449900336660  0.4361670170232510  
  0.5573315618363640  0.3333432086591160  0.4367280806355110  
  0.2692294597468320  0.8333607950733960  0.4365358081694880  
  0.5002568818529550  0.8332778150219869  0.5632983149536060  
  0.3848157278223070  0.8332993590962730  0.5632915719169130  
  0.6156532235475610  0.8332984999089630  0.5636292204623030  
  0.4425434536151440  0.6666361839264210  0.5632130226781060  
  0.6733444686635079  0.6666433963500680  0.5637530742220350  
  0.3270445023495090  0.6666363564059030  0.5635528516101120  
  0.5579580110975900  0.6666435169596950  0.5634219713954070  
  0.2692283650931490  0.1666752108439270  0.4365373423833030  
  0.5002566288577770  0.1666438917706050  0.5632986869143860  
  0.3848158327281650  0.1666399914952520  0.5632930457259420  
  0.6156529954649200  0.1666462496222320  0.5636293502702970  
  0.4425452611486090  0.9999667631534660  0.5632449056410640  
  0.6733313817011960  0.9999730721912670  0.5637593843808300  
  0.3270483923807180  0.9999722481896850  0.5635695344165730  
  0.5579570668843420  0.9999719674322880  0.5634498258468810  
  0.2692177869644540  0.5000191910437690  0.4365301634223830  
  0.5002548798231170  0.4999608863563340  0.5632728240209131  
  0.3848150051829790  0.4999661056403040  0.5632746934391260  
  0.6156571117134960  0.4999752015739320  0.5636173792187620  
  0.4425440150451790  0.3332909595022850  0.5632124729060100  
  0.6733441750710580  0.3333022342186710  0.5637531481013410  
  0.3270438387619310  0.3333142635037590  0.5635535551452620  
  0.5579583197790610  0.3333008445431100  0.5634216571213601  
  0.4611551056621790  0.8333492455308830  0.4365342714408560  
  0.6919620689746960  0.8333537885868481  0.4363890784300820  
  0.3456775063561680  0.8333432342290190  0.4361539891813000  
  0.5765644067574980  0.8333567226711200  0.4367270790528290  
  0.4034388882665210  0.6666894868815940  0.4363394090959010  
  0.6342694067541710  0.6666939688989471  0.4367168821143040  
  0.2876725069791560  0.6666770249959130  0.4363310206890030  
  0.5188600973178130  0.6666932600465220  0.4366616103681620  
  0.4611549815860490  0.1666917935938630  0.4365354969628900  
  0.6919619185352270  0.1666927467252320  0.4363894083043430  
  0.3456776518747230  0.1666959456955150  0.4361552940051250  
  0.5765633598114730  0.1666920152294580  0.4367269826094220  
  0.4034403398441600  0.0000251447215120  0.4363084893591420  
  0.6342655011528460  0.0000256644460706  0.4367009402167240  
  0.2876846242456420  0.0000193439944738  0.4363259458673030  
  0.5188575691151340  0.0000293986299553  0.4366311429466240  
  0.4611543855894810  0.5000225297004161  0.4365631529918660  
  0.6919686007927270  0.5000289696108450  0.4363945456705590  
  0.3456716019601840  0.5000159892048470  0.4361605081759020  
  0.5765655393080920  0.5000229110710350  0.4367453688809770  
  0.4034390846417040  0.3333518792737640  0.4363391082295320  
  0.6342696458983500  0.3333615687616670  0.4367169765267460  
  0.2876721660019680  0.3333583246194040  0.4363317170530370  
  0.5188609888579880  0.3333579662306290  0.4366616104669560  
  0.4810227252823150  0.9999623597209750  0.5632896608481770  
  0.7122035680675440  0.9999713612393960  0.5636072342332950  
  0.3656054495170980  0.9999656864788951  0.5633704847623380  
  0.5964455315469620  0.9999725225736140  0.5635849424391280  
  0.4233098341530590  0.8332965412236319  0.5632396631478760  
  0.6542110032783340  0.8332954955262790  0.5637565956200700  
  0.3079133022395770  0.8333067271493060  0.5637206133292950  
  0.5387282304155010  0.8333005354197740  0.5633997378627030  
  0.4810172190087200  0.3332940068152870  0.5632589256346709  
  0.7122170666460690  0.3333094736423520  0.5635997125778400  
  0.3656026290578890  0.3333032216433200  0.5633455243232890  
  0.5964425560666200  0.3333027853080350  0.5635574880762990  
  0.4233099609008020  0.1666373248573550  0.5632402107941490  
  0.6542110461855370  0.1666508603584380  0.5637565639094080  
  0.3079134945090800  0.1666402651057200  0.5637205066901100  
  0.5387278811433730  0.1666417094091560  0.5633999164090180  
  0.4810175404714130  0.6666287977333170  0.5632589333809720  
  0.7122182318571501  0.6666327572051000  0.5636000112168060  
  0.3656025779535380  0.6666372436280380  0.5633457137224980  
  0.5964431974596850  0.6666400594905040  0.5635573368329080  
  0.4233113721253550  0.4999659813954910  0.5632203990921379  
  0.6542164443225220  0.4999729046195180  0.5637498613341660  
  0.3079059210095280  0.4999760821535940  0.5637093192594660  
  0.5387276208134250  0.4999722892425350  0.5633760513884740  
  0.2690363756902200  0.8332974758829930  0.5640512767750540  
  0.2690237634108500  0.4999708476480860  0.5640388612317860  
  0.2690374805517020  0.1666365294770030  0.5640511383884710  
  0.7308404617999000  0.8333476440922420  0.4361370479309270  
  0.7308528335836610  0.5000187939157850  0.4361554437320050  
  0.7308402092627591  0.1666927817891950  0.4361373693135990  
  0.2505709260818700  0.6666537857330820  0.5642059578672370  
  0.2505726181654000  0.3332794566173550  0.5642062157325750  
  0.2505798553005650  0.9999719060782790  0.5642189130130570  
  0.7493013301674410  0.0000252464330543  0.4360419664468440  
  0.7493100703301820  0.3333398311557970  0.4360480300825530  
  0.7493106721477010  0.6666988380097720  0.4360483199533650  
  0.2397597828576960  0.8334816702189510  0.4370672939481960  
  0.2397491754738250  0.5000199160760840  0.4370666616158160  
  0.2397591337438240  0.1665544641853740  0.4370680595165910  
  0.7601302033135940  0.8334232357483490  0.5628712098177080  
  0.7601409468735340  0.4999693622224090  0.5628759371641791  
  0.7601304992152080  0.1665157252957530  0.5628710893543600  
  0.2210975372386130  0.6667400199772970  0.5644577739721020  
  0.2211008845558880  0.3332072233924420  0.5644579375102050  
  0.2211027105617660  0.9999750811143140  0.5644449594552440  
  0.7787784316685700  0.0000186414602723  0.4359271370435070  
  0.7787810256942580  0.3332613990928480  0.4359112188631900  
  0.7787831941234270  0.6667710441675540  0.4359117313162320  
  0.1132634370000010  0.3328724480372000  0.5001593669007320  
