C    H    Li                            
   1.0000000000000000     
    37.2234382628999967    0.0000000000000000    0.0000000000000000
     0.0000000000000000    8.5469398498999993    0.0000000000000000
     0.0000000000000000    0.0000000000000000   27.8030738831000015
   C    H    Li
   104    16     1
Direct
  0.4663160660124697  0.0053396285916463  0.4366012588798217
  0.4663378012051395  0.5052905602464456  0.4367207564098041
  0.4331792885685337  0.2553851632994086  0.4367410463662200
  0.4331401201863759  0.7553073260531997  0.4363920748292173
  0.3335108076152726  0.0047030167258917  0.4351656253913029
  0.3336044590312292  0.5059356946673466  0.4317009261304156
  0.3013040940057029  0.2579669284214239  0.4260839849731970
  0.3011055782508243  0.7587973278245908  0.4362987187988381
  0.4000404329479309  0.0054855614815123  0.4362433382999439
  0.4000818508894857  0.5056871948538856  0.4361283027282785
  0.3668579247608288  0.2552807568047678  0.4346771771283984
  0.3667714311824696  0.7555436925903249  0.4355536379476661
  0.4664713274959498  0.9941169383325390  0.5633557316840854
  0.4664787589406046  0.4941180832666639  0.5635796537739149
  0.4333498293542815  0.2440044550274304  0.5637960585258727
  0.4332918992602616  0.7440883024401115  0.5635666159078032
  0.3337041188169643  0.9937792445200029  0.5658963347580885
  0.3337932048228974  0.4943350782378527  0.5674973697398408
  0.3013841641048630  0.2398244913851436  0.5728651559520175
  0.3012772484362520  0.7406098722380291  0.5634324263594617
  0.4002161701482058  0.9937447660469684  0.5637941496790837
  0.4002462844580909  0.4938736334952414  0.5647119837281758
  0.3671405912842500  0.2434573921757935  0.5666025830472101
  0.3669364410908072  0.7438872044670848  0.5641553909959917
  0.4663257395154473  0.1720803552779881  0.4367250088198053
  0.4663120993389302  0.6720300932194527  0.4365660285120743
  0.4331773796689228  0.4220798620373903  0.4367089352770361
  0.4331271955682790  0.9221637963292030  0.4364461653800391
  0.3335587401437953  0.1721274018756346  0.4327356265524084
  0.3335532682646142  0.6733663595472089  0.4343288700883911
  0.3013004840042840  0.4198769421157287  0.4249721978969661
  0.3010767045869300  0.9191062469506778  0.4367286756618725
  0.4000641190886512  0.1720181584591968  0.4363035935085341
  0.4000430878276025  0.6722041965086439  0.4359664019500814
  0.3668642364282184  0.4224316360487245  0.4343842210170226
  0.3667433178070846  0.9223269133791697  0.4358332517811968
  0.3013994097891503  0.0791483406968135  0.5702580088655743
  0.3011847746405396  0.5801407809956817  0.5656452218160875
  0.4664836065765145  0.3274291494602244  0.5635279004964503
  0.4664535191089950  0.8274378527681947  0.5634107959863917
  0.3669723506757322  0.0767369161587130  0.5653275214769571
  0.3670331688350774  0.5772553205551642  0.5652002918457801
  0.3339717158079098  0.3264681928028247  0.5699901711335502
  0.3336662178189000  0.8264527559277609  0.5641956420208926
  0.4333067693068717  0.0772676671457891  0.5635659381384237
  0.4333153192658478  0.5773221553680461  0.5638309226302143
  0.4002783701514950  0.3272057196408479  0.5648857693511614
  0.4001897385416640  0.8271943878438025  0.5636903384161884
  0.5327634138612954  0.9942349639545401  0.5635865484977571
  0.5327656020262959  0.4942351602039428  0.5636233388120345
  0.5658830450847872  0.7443695972430774  0.5637214078163914
  0.5658905474449825  0.2443681236994570  0.5637078113306514
  0.6653705039561620  0.9947996631519318  0.5637537786448433
  0.6653708155029016  0.4948028622130990  0.5637491079448883
  0.6977718347119305  0.7409981633651233  0.5634595551245167
  0.6977727072548159  0.2409948794899320  0.5634714292791249
  0.4995960810841829  0.7441516607672132  0.5634800575535684
  0.4996172781831576  0.2441347309192349  0.5634448460339782
  0.5989870028323627  0.9940162677766401  0.5638017055380650
  0.5989876143072264  0.4940213204876721  0.5638049683781158
  0.6322670331519679  0.7443794223801237  0.5638610969293424
  0.6322691287448272  0.2443792558380603  0.5638608162114717
  0.5326332720756429  0.0053188082184106  0.4363682310086149
  0.5326462141835542  0.5053074244129057  0.4364080201636222
  0.5657668937134056  0.7552110799938742  0.4362518454989667
  0.5657742389415231  0.2552187907155060  0.4362700125303249
  0.6652682491728007  0.0048724163555832  0.4362513102419351
  0.6652707543709250  0.5048756258352396  0.4362507991528737
  0.6976711854842188  0.7587044085251885  0.4365537163927544
  0.6976723828203401  0.2587015907648170  0.4365524836100354
  0.4994565358646854  0.7553395138214994  0.4365153389839055
  0.4994783612171953  0.2553787514433217  0.4366382999553970
  0.5988735189417370  0.0056191473074852  0.4361650524734820
  0.5988797095140486  0.5056233280383903  0.4361716185043954
  0.6321635034225084  0.7552950950576222  0.4361223729934615
  0.6321653378568414  0.2552905027157631  0.4361222431111461
  0.5327568091562002  0.8275398211667711  0.5636046744647017
  0.5327690327545828  0.3275396064443498  0.5636021910593197
  0.5658837678433161  0.5774489163351932  0.5637407430510236
  0.5658823363845057  0.0774475030808443  0.5637216893472639
  0.6653593077591773  0.8269957923832173  0.5637665303794828
  0.6653606098440830  0.3269958298717758  0.5637681964312391
  0.6977933970718735  0.5807960326825022  0.5635223577356819
  0.6977933051919532  0.0807919872809150  0.5635369393096104
  0.4996056765873816  0.5775384133770062  0.5635407879810307
  0.4996043913068434  0.0775370710436403  0.5634443553195668
  0.5989853306455685  0.8278011821261761  0.5638356282099775
  0.5989893959230016  0.3278023146083797  0.5638330530576815
  0.6322714416610674  0.5774749986184590  0.5638507813180120
  0.6322709412757858  0.0774717649180667  0.5638515737381405
  0.6976912942339396  0.9189170852881401  0.4364929286536281
  0.6976928212113496  0.4189213336390857  0.4364907669145995
  0.4994536375371371  0.9220019863853337  0.4364837316579661
  0.4994799067093916  0.4219438527951877  0.4366131726156945
  0.5326334222357794  0.6720106929017688  0.4363803784749820
  0.5326452482532710  0.1720180771168144  0.4364039772881811
  0.6321674605189211  0.9221951798588833  0.4361311114615340
  0.6321697177899309  0.4221984561133133  0.4361324488224032
  0.6652598320530800  0.6727094511690110  0.4362333284965140
  0.6652620050932005  0.1727065111794538  0.4362324959088359
  0.5657644002660912  0.9221804944495448  0.4362305116555997
  0.5657728282686771  0.4221751371070404  0.4362556775098234
  0.5988755411324875  0.6718532139764891  0.4361379908938033
  0.5988807583568014  0.1718488731226404  0.4361380156297930
  0.7234153695852161  0.9794308874194643  0.4368435215672017
  0.7234173461486268  0.4794311030662655  0.4368404585968884
  0.7234793446865326  0.8016332179708975  0.5630530795131256
  0.7234808583880380  0.3016265725939451  0.5630738901526752
  0.7233829234526337  0.6980951663853755  0.4369746441938413
  0.7233845457809316  0.1980956771930515  0.4369737461221779
  0.7235183487432570  0.0202925320992075  0.5632125828773333
  0.7235185596164579  0.5202972673461458  0.5631890013693972
  0.2757984361510934  0.0182870835203126  0.5730910861712420
  0.2752747122764173  0.5205256526562667  0.5672129754350386
  0.2760720867924275  0.1964028172137152  0.4201586535870941
  0.2754483971656180  0.6977827272406676  0.4381491576326663
  0.2759219135769478  0.2995114308260434  0.5793198865463780
  0.2755725953419372  0.8010565248098592  0.5616539531107183
  0.2754019504578268  0.9798238181324521  0.4388954349763834
  0.2761228327831983  0.4809783345200529  0.4182006697261607
  0.3097544753428805  0.3657959262299802  0.5004188721664594

             NaN             NaN             NaN
             NaN             NaN             NaN
             NaN             NaN             NaN
             NaN             NaN             NaN
             NaN             NaN             NaN
             NaN             NaN             NaN
             NaN             NaN             NaN
             NaN             NaN             NaN
             NaN             NaN             NaN
             NaN             NaN             NaN
             NaN             NaN             NaN
             NaN             NaN             NaN
             NaN             NaN             NaN
             NaN             NaN             NaN
             NaN             NaN             NaN
             NaN             NaN             NaN
             NaN             NaN             NaN
             NaN             NaN             NaN
             NaN             NaN             NaN
             NaN             NaN             NaN
             NaN             NaN             NaN
             NaN             NaN             NaN
             NaN             NaN             NaN
             NaN             NaN             NaN
             NaN             NaN             NaN
             NaN             NaN             NaN
             NaN             NaN             NaN
             NaN             NaN             NaN
             NaN             NaN             NaN
             NaN             NaN             NaN
             NaN             NaN             NaN
             NaN             NaN             NaN
             NaN             NaN             NaN
             NaN             NaN             NaN
             NaN             NaN             NaN
             NaN             NaN             NaN
             NaN             NaN             NaN
             NaN             NaN             NaN
             NaN             NaN             NaN
             NaN             NaN             NaN
             NaN             NaN             NaN
             NaN             NaN             NaN
             NaN             NaN             NaN
             NaN             NaN             NaN
             NaN             NaN             NaN
             NaN             NaN             NaN
             NaN             NaN             NaN
             NaN             NaN             NaN
             NaN             NaN             NaN
             NaN             NaN             NaN
             NaN             NaN             NaN
             NaN             NaN             NaN
             NaN             NaN             NaN
             NaN             NaN             NaN
             NaN             NaN             NaN
             NaN             NaN             NaN
             NaN             NaN             NaN
             NaN             NaN             NaN
             NaN             NaN             NaN
             NaN             NaN             NaN
             NaN             NaN             NaN
             NaN             NaN             NaN
             NaN             NaN             NaN
             NaN             NaN             NaN
             NaN             NaN             NaN
             NaN             NaN             NaN
             NaN             NaN             NaN
             NaN             NaN             NaN
             NaN             NaN             NaN
             NaN             NaN             NaN
             NaN             NaN             NaN
             NaN             NaN             NaN
             NaN             NaN             NaN
             NaN             NaN             NaN
             NaN             NaN             NaN
             NaN             NaN             NaN
             NaN             NaN             NaN
             NaN             NaN             NaN
             NaN             NaN             NaN
             NaN             NaN             NaN
             NaN             NaN             NaN
             NaN             NaN             NaN
             NaN             NaN             NaN
             NaN             NaN             NaN
             NaN             NaN             NaN
             NaN             NaN             NaN
             NaN             NaN             NaN
             NaN             NaN             NaN
             NaN             NaN             NaN
             NaN             NaN             NaN
             NaN             NaN             NaN
             NaN             NaN             NaN
             NaN             NaN             NaN
             NaN             NaN             NaN
             NaN             NaN             NaN
             NaN             NaN             NaN
             NaN             NaN             NaN
             NaN             NaN             NaN
             NaN             NaN             NaN
             NaN             NaN             NaN
             NaN             NaN             NaN
             NaN             NaN             NaN
             NaN             NaN             NaN
             NaN             NaN             NaN
             NaN             NaN             NaN
             NaN             NaN             NaN
             NaN             NaN             NaN
             NaN             NaN             NaN
             NaN             NaN             NaN
             NaN             NaN             NaN
             NaN             NaN             NaN
             NaN             NaN             NaN
             NaN             NaN             NaN
             NaN             NaN             NaN
             NaN             NaN             NaN
             NaN             NaN             NaN
             NaN             NaN             NaN
             NaN             NaN             NaN
             NaN             NaN             NaN
             NaN             NaN             NaN
             NaN             NaN             NaN
