C    H    Li                            
   1.0000000000000000     
    37.0938796996999969    0.0000000000000000    0.0000000000000000
     0.0000000000000000    7.3546423911999996    0.0000000000000000
     0.0000000000000000    0.0000000000000000   27.8030738831000015
   C    H    Li
   108    12     1
Direct
  0.4998265157703022  0.8334797377840871  0.4369070552530601
  0.7301918732299555  0.8332008053570951  0.5630635942397721
  0.3844512829322483  0.8334380876413305  0.4348321371028523
  0.6152498995166594  0.8335066607941142  0.4371568154017477
  0.4421343065685922  0.6668044613908987  0.4361901307913391
  0.6730195691346895  0.6668129783535297  0.4367997373747700
  0.3267671582293316  0.6670381079338710  0.4324979175026074
  0.5575296237383027  0.6668143883520758  0.4371819008274052
  0.4998231206315516  0.1668166145549019  0.4368720308996391
  0.7301917684511477  0.1665330981333274  0.5630629128530316
  0.3844506164677358  0.1666960484688524  0.4344845858817566
  0.6152502984190454  0.1668408896366549  0.4371544609892521
  0.4421346852422657  0.0000976148330902  0.4361888730667618
  0.6730195633263836  0.0001426007691199  0.4367997469560748
  0.3267665553983725  0.9998096516073999  0.4324987434553935
  0.5575295410461832  0.0001419964007301  0.4371819350268096
  0.4998230670296441  0.5001451329529366  0.4368720889151993
  0.7301917653639304  0.4998685922096009  0.5630628862634546
  0.3844512434857967  0.5001770441975500  0.4344859907605194
  0.6152503276265220  0.5001724089411089  0.4371544385612902
  0.4421245180584022  0.3334515298358350  0.4360596234412779
  0.6730191398517262  0.3334777271849720  0.4367990744637707
  0.3268997569519906  0.3334251576794906  0.4310476465823725
  0.5575285091339458  0.3334783538399923  0.4371723291534007
  0.2695116679462475  0.8334233048978688  0.4305815784980042
  0.4997372040862622  0.8331915894531572  0.5629012997667343
  0.3842809429518925  0.8331882980893064  0.5634769155779979
  0.6151634025054096  0.8331965655132771  0.5636429195326602
  0.4420121107814386  0.6665347364216311  0.5627262742304578
  0.6728569381599893  0.6665328511780939  0.5636289146243332
  0.3265179200902595  0.6669071344012160  0.5661515663678707
  0.5574531577052572  0.6665161336800118  0.5633338790056955
  0.2694329850931527  0.1662979937480294  0.4291807422914445
  0.4997329012069280  0.1665225805083147  0.5629052869688096
  0.3842606986430712  0.1664839379883120  0.5635870453130469
  0.6151623890529822  0.1665287110140636  0.5636425214690035
  0.4420123162338244  0.9998367141900195  0.5627275730926392
  0.6728569429444370  0.9998654097671000  0.5636289504113262
  0.3265177429084070  0.9994774256977065  0.5661534710784039
  0.5574532416075670  0.9998451813039477  0.5633339198997618
  0.2694330218522014  0.5005510862353765  0.4291874660545363
  0.4997327337926533  0.4998614194682537  0.5629049302767639
  0.3842599271944231  0.4998963070942950  0.5635861642329189
  0.6151623925663485  0.4998646394703503  0.5636425395606178
  0.4420018017265936  0.3331867607338056  0.5627493963838850
  0.6728563806711995  0.3331991596723644  0.5636285621130974
  0.3264938933533338  0.3331905046875545  0.5666667786432712
  0.5574510692017575  0.3331798096354436  0.5633344921234597
  0.4613562797638473  0.8334545343734228  0.4365028884658425
  0.6921513446843659  0.8334729637920937  0.4365920133133180
  0.3459000584793153  0.8334256173548007  0.4335515164233958
  0.5767609985547938  0.8334799970844813  0.4371983237674660
  0.4036474729867411  0.6668220405366456  0.4353053743564937
  0.6344628507979428  0.6668350366803967  0.4370615100273980
  0.2878873889993568  0.6675885543483466  0.4308877647240829
  0.5190561076897926  0.6668161070437786  0.4370103493846009
  0.4613485061653325  0.1667903911995470  0.4364153051534672
  0.6921510862327377  0.1668063729927587  0.4365916720029603
  0.3458968270970606  0.1664985475729863  0.4326817597276710
  0.5767601333357900  0.1668134324802069  0.4371919136871926
  0.4036475062321154  1.0000631928365469  0.4353044167683837
  0.6344628410628851  0.0001663057099918  0.4370615276853257
  0.2878868096761338  0.9992628701879241  0.4308853285290520
  0.5190559915110726  0.0001481498643873  0.4370103218018018
  0.4613484045079473  0.5001237709905991  0.4364157284737028
  0.6921510833190054  0.5001395551065042  0.4365916690836781
  0.3458978404399320  0.5003544565357507  0.4326824570517085
  0.5767601916803624  0.5001464823534233  0.4371918784249038
  0.4036252744919365  0.3334382515693514  0.4350262755539967
  0.6344623698015541  0.3335006092671541  0.4370596757965827
  0.2879384702971556  0.3334256957032650  0.4279730392246481
  0.5190531324420821  0.3334824527052822  0.4369860728036826
  0.4804945573289204  0.9998559031306056  0.5627970933764250
  0.7117366302538835  0.9998699376011241  0.5633510112759901
  0.3650561962529648  0.9997756511943795  0.5641679625043661
  0.5959495572721741  0.9998595977855586  0.5635821532972386
  0.4227810591412784  0.8331873486891488  0.5628323599217132
  0.6537263588993036  0.8331972034795359  0.5636894129915709
  0.3073878841350672  0.8331886390310708  0.5673925162138620
  0.5382203528237666  0.8331797939914973  0.5632034080309406
  0.4804901488170752  0.3331930738515466  0.5628030907201566
  0.7117369480164680  0.3332028949382366  0.5633507042192621
  0.3650725164982800  0.3331893044136092  0.5643094086680283
  0.5959492190814034  0.3331930816069579  0.5635820205574841
  0.4227683928064125  0.1664973034583474  0.5628690425498446
  0.6537256107928234  0.1665280822484336  0.5636889372210292
  0.3073688509773887  0.1660618758245906  0.5679699855297111
  0.5382174475600260  0.1665104738158223  0.5632038873752674
  0.4804944485894946  0.6665307152056120  0.5627964305945761
  0.7117366281720532  0.6665359371976214  0.5633509712563941
  0.3650563895858916  0.6666037184001413  0.5641645971361678
  0.5959495577558496  0.6665264659669519  0.5635821827897873
  0.4227682001288580  0.4998765381230974  0.5628677629453930
  0.6537256059162578  0.4998662830415534  0.5636889212029240
  0.3073682776439773  0.5003251357366678  0.5679695596863646
  0.5382174250357185  0.4998523145529629  0.5632036610041594
  0.2685263336492474  0.8331933415754046  0.5703451021172536
  0.2683929212415135  0.5008552258387470  0.5716496254185564
  0.2683935697184311  0.1655218582633298  0.5716447259755252
  0.7310235412948093  0.8334561678330084  0.4361786306009444
  0.7310242968673556  0.5001222074297482  0.4361790002895555
  0.7310243059814285  0.1667900462702114  0.4361789761058316
  0.2500702134065683  0.6672824517164939  0.5721451434382356
  0.2498817566344208  0.3331862278480527  0.5734496487771905
  0.2500699601884170  0.9991050227300048  0.5721373685191673
  0.7494884842742201  0.0001185788166260  0.4359811253485669
  0.7494889342796502  0.3334531349322509  0.4359820850729712
  0.7494884708698285  0.6667876609543705  0.4359811645774961
  0.2400528667694636  0.8334169402171911  0.4295432869610677
  0.2400067039641169  0.5012190106738206  0.4259518779553186
  0.2400067507414105  0.1656224595898529  0.4259438338390082
  0.7596551655033108  0.8332024535564352  0.5624280715316686
  0.7596550216029196  0.4998702684335370  0.5624263738577743
  0.7596550256455790  0.1665347398993830  0.5624263669889430
  0.2206623268494280  0.6676326834065419  0.5745663924511870
  0.2205476394415241  0.3331952075930655  0.5771691945685444
  0.2206621057912756  0.9987756613926762  0.5745598735648620
  0.7789607664628966  0.0001126425201941  0.4356830890781906
  0.7789611832141130  0.3334484369051349  0.4356845191936737
  0.7789607466258296  0.6667842351055077  0.4356831100032311
  0.2701739638344344  0.3333730329994464  0.5002922250244166

             NaN             NaN             NaN
             NaN             NaN             NaN
             NaN             NaN             NaN
             NaN             NaN             NaN
             NaN             NaN             NaN
             NaN             NaN             NaN
             NaN             NaN             NaN
             NaN             NaN             NaN
             NaN             NaN             NaN
             NaN             NaN             NaN
             NaN             NaN             NaN
             NaN             NaN             NaN
             NaN             NaN             NaN
             NaN             NaN             NaN
             NaN             NaN             NaN
             NaN             NaN             NaN
             NaN             NaN             NaN
             NaN             NaN             NaN
             NaN             NaN             NaN
             NaN             NaN             NaN
             NaN             NaN             NaN
             NaN             NaN             NaN
             NaN             NaN             NaN
             NaN             NaN             NaN
             NaN             NaN             NaN
             NaN             NaN             NaN
             NaN             NaN             NaN
             NaN             NaN             NaN
             NaN             NaN             NaN
             NaN             NaN             NaN
             NaN             NaN             NaN
             NaN             NaN             NaN
             NaN             NaN             NaN
             NaN             NaN             NaN
             NaN             NaN             NaN
             NaN             NaN             NaN
             NaN             NaN             NaN
             NaN             NaN             NaN
             NaN             NaN             NaN
             NaN             NaN             NaN
             NaN             NaN             NaN
             NaN             NaN             NaN
             NaN             NaN             NaN
             NaN             NaN             NaN
             NaN             NaN             NaN
             NaN             NaN             NaN
             NaN             NaN             NaN
             NaN             NaN             NaN
             NaN             NaN             NaN
             NaN             NaN             NaN
             NaN             NaN             NaN
             NaN             NaN             NaN
             NaN             NaN             NaN
             NaN             NaN             NaN
             NaN             NaN             NaN
             NaN             NaN             NaN
             NaN             NaN             NaN
             NaN             NaN             NaN
             NaN             NaN             NaN
             NaN             NaN             NaN
             NaN             NaN             NaN
             NaN             NaN             NaN
             NaN             NaN             NaN
             NaN             NaN             NaN
             NaN             NaN             NaN
             NaN             NaN             NaN
             NaN             NaN             NaN
             NaN             NaN             NaN
             NaN             NaN             NaN
             NaN             NaN             NaN
             NaN             NaN             NaN
             NaN             NaN             NaN
             NaN             NaN             NaN
             NaN             NaN             NaN
             NaN             NaN             NaN
             NaN             NaN             NaN
             NaN             NaN             NaN
             NaN             NaN             NaN
             NaN             NaN             NaN
             NaN             NaN             NaN
             NaN             NaN             NaN
             NaN             NaN             NaN
             NaN             NaN             NaN
             NaN             NaN             NaN
             NaN             NaN             NaN
             NaN             NaN             NaN
             NaN             NaN             NaN
             NaN             NaN             NaN
             NaN             NaN             NaN
             NaN             NaN             NaN
             NaN             NaN             NaN
             NaN             NaN             NaN
             NaN             NaN             NaN
             NaN             NaN             NaN
             NaN             NaN             NaN
             NaN             NaN             NaN
             NaN             NaN             NaN
             NaN             NaN             NaN
             NaN             NaN             NaN
             NaN             NaN             NaN
             NaN             NaN             NaN
             NaN             NaN             NaN
             NaN             NaN             NaN
             NaN             NaN             NaN
             NaN             NaN             NaN
             NaN             NaN             NaN
             NaN             NaN             NaN
             NaN             NaN             NaN
             NaN             NaN             NaN
             NaN             NaN             NaN
             NaN             NaN             NaN
             NaN             NaN             NaN
             NaN             NaN             NaN
             NaN             NaN             NaN
             NaN             NaN             NaN
             NaN             NaN             NaN
             NaN             NaN             NaN
             NaN             NaN             NaN
             NaN             NaN             NaN
             NaN             NaN             NaN
             NaN             NaN             NaN
