C    H    Li                            
   1.0000000000000000     
    37.0938796996999969    0.0000000000000000    0.0000000000000000
     0.0000000000000000    7.3546423911999996    0.0000000000000000
     0.0000000000000000    0.0000000000000000   27.8030738831000015
   C    H    Li
   108    12     1
Direct
  0.4991712921478839  0.8333949552373208  0.4366652664994891
  0.7300030625365935  0.8332660773921247  0.5630209510716186
  0.3836165998326734  0.8333855375877910  0.4363323092621991
  0.6147243696054310  0.8333885077631554  0.4370582644921392
  0.4413914626252204  0.6667203978301075  0.4363633707241442
  0.6725342070109749  0.6667288030764337  0.4368506350414577
  0.3258331514533490  0.6668440283035154  0.4366714470401748
  0.5569460339218700  0.6667271585466588  0.4369437646059715
  0.4991728367861455  0.1667304953472543  0.4366657940168345
  0.7300035937627635  0.1665979419144004  0.5630205275964764
  0.3835885680285823  0.1667561486373278  0.4363523930012100
  0.6147246005145659  0.1667216991827141  0.4370580204541903
  0.4413913160642119  0.0000552546844755  0.4363636141467148
  0.6725342013165648  0.0000596723129550  0.4368506361829460
  0.3258333189623462  0.9999325936417325  0.4366720288800042
  0.5569460439594526  0.0000508556621579  0.4369437474535544
  0.4991728075853771  0.5000590222524594  0.4366657931195665
  0.7300035914294667  0.4999342129937376  0.5630205618489691
  0.3835888059867038  0.5000165018519206  0.4363516045783533
  0.6147245881684429  0.5000552830982755  0.4370580236761332
  0.4413907178642478  0.3333870459259199  0.4363759964413239
  0.6725337816904041  0.3333942666651293  0.4368508389476038
  0.3257975478837947  0.3333912384371456  0.4368549378517416
  0.5569462160795933  0.3333890512960276  0.4369437615549533
  0.2686357318612028  0.8333891929354758  0.4363744048389004
  0.4994199522116877  0.8332656548732107  0.5630932115718773
  0.3838565788665452  0.8332687583599693  0.5622239157094212
  0.6149341740167870  0.8332635919250376  0.5637512410773776
  0.4416386475625705  0.6665770666130566  0.5626659644079350
  0.6726549269592603  0.6665964846727451  0.5636855982588838
  0.3260104936531293  0.6666565783449739  0.5623788563939111
  0.5571851960337190  0.6665982302401441  0.5634766401449862
  0.2684479314569378  0.1662919162323317  0.4363135638351959
  0.4994201716383858  0.1665976770664704  0.5630846492282846
  0.3838262022933444  0.1666327222755050  0.5622127865307400
  0.6149333946597998  0.1665956852952442  0.5637504896333981
  0.4416386929356894  0.9999403650588554  0.5626659006564741
  0.6726549215839968  0.9999295343628529  0.5636855234540330
  0.3260104151109007  0.9998880810055333  0.5623777555534679
  0.5571851997359459  0.9999268223403188  0.5634767200419680
  0.2684480193464819  0.5004900623206062  0.4363135223857731
  0.4994201517477122  0.4999332512069373  0.5630845427139358
  0.3838262312916467  0.4999049066307320  0.5622133348458833
  0.6149334010586970  0.4999314966352785  0.5637505425204145
  0.4416375715669993  0.3332583582467985  0.5626517686461956
  0.6726547558156513  0.3332629989903192  0.5636853733034328
  0.3259077553145937  0.3332729013997517  0.5624878314544027
  0.5571851036588278  0.3332625390103393  0.5634739714253488
  0.4606557113055867  0.8333884000955794  0.4364395406192834
  0.6916785617764798  0.8333967588816068  0.4367008970843765
  0.3449979808878334  0.8333875020545100  0.4365228238485394
  0.5762017094968337  0.8333885788704207  0.4369872161208099
  0.4028488621554847  0.6667094285553742  0.4362792822782182
  0.6339531974494460  0.6667240375593971  0.4370211252050526
  0.2869157096870776  0.6675255429290982  0.4366054421130762
  0.5184373105184034  0.6667323246409954  0.4367567862350851
  0.4606559310961305  0.1667280797412775  0.4364443745579800
  0.6916780942856786  0.1667303236730590  0.4367013355504442
  0.3449432339474360  0.1667626272756171  0.4365918596334981
  0.5762009932506688  0.1667215437149328  0.4369867934069193
  0.4028486216831079  0.0000620052372391  0.4362797444950559
  0.6339531983237529  0.0000542269709242  0.4370211257504475
  0.2869155250406811  0.9992502183958789  0.4366063539204797
  0.5184373393656794  0.0000556891303349  0.4367567757847529
  0.4606559252200415  0.5000481185990455  0.4364442569423885
  0.6916780936792373  0.5000632047712799  0.4367013356428182
  0.3449436628881268  0.5000163448866050  0.4365924127764261
  0.5762009884559111  0.5000556768124019  0.4369868066339478
  0.4028369396397237  0.3333857808607587  0.4363028423150531
  0.6339525962292585  0.3333891480649233  0.4370209302250885
  0.2867243924945576  0.3333996809798457  0.4362649755699103
  0.5184363069432392  0.3333940160911115  0.4367575564096545
  0.4801570986089176  0.9999417701504121  0.5629672385934374
  0.7115466342352572  0.9999345442100693  0.5633447104529374
  0.3646181977637671  0.9999570971228143  0.5621316651478985
  0.5957078113495363  0.9999321955635533  0.5636959877279196
  0.4223888121851727  0.8332581487658451  0.5625309147529685
  0.6535137248753998  0.8332604417694935  0.5637701286973482
  0.3069113469412454  0.8332737641738153  0.5628867921510377
  0.5379325573360419  0.8332609530629494  0.5633670488278164
  0.4801576519110018  0.3332652801914815  0.5629595566055461
  0.7115476012522683  0.3332665714529566  0.5633450161866681
  0.3645500263435065  0.3332703059007648  0.5621649681842121
  0.5957085133177474  0.3332647767500448  0.5636954545279995
  0.4223736151043913  0.1666023536194629  0.5625042110713925
  0.6535129160079265  0.1665907938498363  0.5637694729222278
  0.3068141838408248  0.1662943943452361  0.5628621691072965
  0.5379328654986146  0.1665888017830805  0.5633620794471081
  0.4801570611116720  0.6665891275157322  0.5629671456826724
  0.7115466348547178  0.6665986280678160  0.5633447611816370
  0.3646181432836875  0.6665833584677877  0.5621323564932847
  0.5957078075892237  0.6665973553811312  0.5636959960951097
  0.4223736191323093  0.4999119483624871  0.5625044376361931
  0.6535129221027347  0.4999301027888843  0.5637695580868546
  0.3068141455311110  0.5002539047541626  0.5628638479400846
  0.5379328550992077  0.4999330946380066  0.5633619737514961
  0.2680669932419205  0.8332731825876137  0.5645454651503137
  0.2678742245245240  0.5011675887084128  0.5652348802840086
  0.2678733973738606  0.1653851363137130  0.5652341516837599
  0.7305645795696025  0.8334003894882825  0.4363846957977768
  0.7305647888495937  0.5000673865864349  0.4363863336906633
  0.7305648034521444  0.1667333551042576  0.4363863283282067
  0.2496340827676200  0.6672350623858476  0.5658313529365604
  0.2493447507923932  0.3332795859983491  0.5671609272162776
  0.2496324672667222  0.9993092769397887  0.5658299333032764
  0.7490330811583048  0.0000694089415588  0.4362332906357724
  0.7490329603621448  0.3334031973577402  0.4362364305361474
  0.7490330688289017  0.6667369217413721  0.4362332995551567
  0.2391484905770288  0.8333887812492695  0.4366620067248495
  0.2389522044792391  0.5035013027544067  0.4315528994205471
  0.2389547417671198  0.1632773426278036  0.4315111594781312
  0.7594690269687020  0.8332686760923694  0.5622965107406063
  0.7594694996942154  0.4999383163700010  0.5622946038255162
  0.7594695009426600  0.1665990290163320  0.5622945831870885
  0.2201667840127617  0.6683968988369247  0.5681509943495485
  0.2205858491019632  0.3332858704797770  0.5767156974962063
  0.2201654810409825  0.9981485016413900  0.5681611708725197
  0.7785118675590769  0.0000637347899394  0.4359987777436306
  0.7785117589168595  0.3333973803519184  0.4360014779243532
  0.7785118564419219  0.6667308509560057  0.4359987825299190
  0.2343501546276585  0.3328625272957972  0.4946982829187779

             NaN             NaN             NaN
             NaN             NaN             NaN
             NaN             NaN             NaN
             NaN             NaN             NaN
             NaN             NaN             NaN
             NaN             NaN             NaN
             NaN             NaN             NaN
             NaN             NaN             NaN
             NaN             NaN             NaN
             NaN             NaN             NaN
             NaN             NaN             NaN
             NaN             NaN             NaN
             NaN             NaN             NaN
             NaN             NaN             NaN
             NaN             NaN             NaN
             NaN             NaN             NaN
             NaN             NaN             NaN
             NaN             NaN             NaN
             NaN             NaN             NaN
             NaN             NaN             NaN
             NaN             NaN             NaN
             NaN             NaN             NaN
             NaN             NaN             NaN
             NaN             NaN             NaN
             NaN             NaN             NaN
             NaN             NaN             NaN
             NaN             NaN             NaN
             NaN             NaN             NaN
             NaN             NaN             NaN
             NaN             NaN             NaN
             NaN             NaN             NaN
             NaN             NaN             NaN
             NaN             NaN             NaN
             NaN             NaN             NaN
             NaN             NaN             NaN
             NaN             NaN             NaN
             NaN             NaN             NaN
             NaN             NaN             NaN
             NaN             NaN             NaN
             NaN             NaN             NaN
             NaN             NaN             NaN
             NaN             NaN             NaN
             NaN             NaN             NaN
             NaN             NaN             NaN
             NaN             NaN             NaN
             NaN             NaN             NaN
             NaN             NaN             NaN
             NaN             NaN             NaN
             NaN             NaN             NaN
             NaN             NaN             NaN
             NaN             NaN             NaN
             NaN             NaN             NaN
             NaN             NaN             NaN
             NaN             NaN             NaN
             NaN             NaN             NaN
             NaN             NaN             NaN
             NaN             NaN             NaN
             NaN             NaN             NaN
             NaN             NaN             NaN
             NaN             NaN             NaN
             NaN             NaN             NaN
             NaN             NaN             NaN
             NaN             NaN             NaN
             NaN             NaN             NaN
             NaN             NaN             NaN
             NaN             NaN             NaN
             NaN             NaN             NaN
             NaN             NaN             NaN
             NaN             NaN             NaN
             NaN             NaN             NaN
             NaN             NaN             NaN
             NaN             NaN             NaN
             NaN             NaN             NaN
             NaN             NaN             NaN
             NaN             NaN             NaN
             NaN             NaN             NaN
             NaN             NaN             NaN
             NaN             NaN             NaN
             NaN             NaN             NaN
             NaN             NaN             NaN
             NaN             NaN             NaN
             NaN             NaN             NaN
             NaN             NaN             NaN
             NaN             NaN             NaN
             NaN             NaN             NaN
             NaN             NaN             NaN
             NaN             NaN             NaN
             NaN             NaN             NaN
             NaN             NaN             NaN
             NaN             NaN             NaN
             NaN             NaN             NaN
             NaN             NaN             NaN
             NaN             NaN             NaN
             NaN             NaN             NaN
             NaN             NaN             NaN
             NaN             NaN             NaN
             NaN             NaN             NaN
             NaN             NaN             NaN
             NaN             NaN             NaN
             NaN             NaN             NaN
             NaN             NaN             NaN
             NaN             NaN             NaN
             NaN             NaN             NaN
             NaN             NaN             NaN
             NaN             NaN             NaN
             NaN             NaN             NaN
             NaN             NaN             NaN
             NaN             NaN             NaN
             NaN             NaN             NaN
             NaN             NaN             NaN
             NaN             NaN             NaN
             NaN             NaN             NaN
             NaN             NaN             NaN
             NaN             NaN             NaN
             NaN             NaN             NaN
             NaN             NaN             NaN
             NaN             NaN             NaN
             NaN             NaN             NaN
             NaN             NaN             NaN
             NaN             NaN             NaN
             NaN             NaN             NaN
