C    H    Li                            
   1.0000000000000000     
    37.0938796996999969    0.0000000000000000    0.0000000000000000
     0.0000000000000000    7.3546423911999996    0.0000000000000000
     0.0000000000000000    0.0000000000000000   27.8030738831000015
   C    H    Li
   108    12     1
Direct
  0.4992323150764674  0.8333969965338646  0.4366820512978488
  0.7301122817222093  0.8332644968999443  0.5630867741892166
  0.3836808270856004  0.8333921395038918  0.4363032995936305
  0.6147802286980493  0.8333991693019422  0.4370310112513314
  0.4414551236273928  0.6667283492669099  0.4363983962662090
  0.6725900951427907  0.6667404940728864  0.4367993896742495
  0.3258995000334627  0.6668409451913950  0.4365050010930436
  0.5570040768331983  0.6667350820578796  0.4369378694039867
  0.4992335349164854  0.1667322223778823  0.4366825107233600
  0.7301129313239799  0.1665962314467824  0.5630864471355612
  0.3836567334360916  0.1667562307464648  0.4363214947349096
  0.6147803905860870  0.1667324027867925  0.4370308140755889
  0.4414551031648986  0.0000600073391723  0.4363986776899436
  0.6725900992715982  0.0000717163902963  0.4367993814009509
  0.3259003580750162  0.9999562531362143  0.4365062709872021
  0.5570039604839616  0.0000593503191493  0.4369382712049247
  0.4992336213095691  0.5000622484208990  0.4366824713562956
  0.7301129287771487  0.4999327673739865  0.5630864127203020
  0.3836563678328032  0.5000292470243393  0.4363216792363617
  0.6147803729143039  0.5000660052254570  0.4370308028534955
  0.4414547527394567  0.3333949804349338  0.4364092982659804
  0.6725897179676484  0.3334061042974337  0.4367998888097893
  0.3258714782293265  0.3333971767752157  0.4366766932744210
  0.5570041693081291  0.3333973779717878  0.4369377222125658
  0.2686945162689131  0.8334070558295487  0.4360678065414574
  0.4995359111469617  0.8332652387921140  0.5631638198697020
  0.3839668046656677  0.8332531248368853  0.5624347966675034
  0.6150470407224615  0.8332556445657558  0.5637135609424996
  0.4417540757910771  0.6665810896653427  0.5628094970853135
  0.6727659699711979  0.6665914207195878  0.5636730632421942
  0.3261174899096749  0.6666271223391941  0.5625221670611558
  0.5572985165496785  0.6665891047835163  0.5634850663687665
  0.2685264664890061  0.1663738115971566  0.4360810666669693
  0.4995361362124065  0.1665975492071858  0.5631551688617790
  0.3839348420085035  0.1666216442461686  0.5623957278704304
  0.6150462625012988  0.1665877076550542  0.5637127061073443
  0.4417540964380875  0.9999487524446867  0.5628103139161110
  0.6727659681805395  0.9999245346670608  0.5636731464764089
  0.3261174207187930  0.9998831837750694  0.5625227957982840
  0.5572985174142340  0.9999175390129846  0.5634852785576823
  0.2685274653771369  0.5004347738250672  0.4360780009869871
  0.4995361382082442  0.4999328764448218  0.5631548244011344
  0.3839345528736376  0.4998880530290248  0.5623962062545927
  0.6150462624862717  0.4999236440500280  0.5637125860423817
  0.4417529085629943  0.3332636872493918  0.5627866608171804
  0.6727657898296754  0.3332579951411427  0.5636728131583879
  0.3260105999404509  0.3332543714872095  0.5625460229173486
  0.5572984313818495  0.3332533383950703  0.5634819494809028
  0.4607183158279421  0.8333945737928834  0.4364749729518373
  0.6917342959779851  0.8334042712729542  0.4366421807646759
  0.3450612284315621  0.8333952647152191  0.4363986630724636
  0.5762607447692412  0.8333984319636217  0.4369766723143488
  0.4029116358093252  0.6667186801080979  0.4362836643971508
  0.6340102085913528  0.6667335673418032  0.4369842254564176
  0.2869735052670048  0.6674844404052315  0.4363570453776282
  0.5184989374331732  0.6667342165388136  0.4367637997410699
  0.4607182339328243  0.1667333384817172  0.4364792158119035
  0.6917338517907945  0.1667378076336957  0.4366428457243612
  0.3450137938461728  0.1667588794388368  0.4364661541179815
  0.5762595721988002  0.1667294186294954  0.4369758128809804
  0.4029116614445362  0.0000643119497606  0.4362839675219260
  0.6340102141268940  0.0000639373215538  0.4369842289367284
  0.2869740621541515  0.9993225670442765  0.4363606030050278
  0.5184988651246303  0.0000577259979922  0.4367638795332600
  0.4607183339928588  0.5000560932015778  0.4364791036048855
  0.6917338479701430  0.5000707710429262  0.4366428572064723
  0.3450131706316112  0.5000341864546153  0.4364665886823763
  0.5762595862573703  0.5000634774474236  0.4369757461646123
  0.4029009698605596  0.3333921507695807  0.4363038182397377
  0.6340095999208285  0.3333986370527233  0.4369842150222259
  0.2868077024500509  0.3334065712131861  0.4360846578408575
  0.5184977534914065  0.3333957514627299  0.4367644142045779
  0.4802738609958059  0.9999437273989592  0.5630563437922944
  0.7116559321577192  0.9999327882834312  0.5633833504002829
  0.3647271757585278  0.9999451998699685  0.5623266702037532
  0.5958196489547744  0.9999220157684150  0.5636716492809186
  0.4225013891915588  0.8332642678706002  0.5627014173920759
  0.6536271889202282  0.8332560626721067  0.5637372454639727
  0.3070242299227405  0.8332548774868922  0.5630321441603352
  0.5380477006542369  0.8332507928171859  0.5633969333892229
  0.4802744593207456  0.3332663647375515  0.5630461626770327
  0.7116570002200311  0.3332646776067550  0.5633835702518848
  0.3646560330368564  0.3332530555870952  0.5623223444695673
  0.5958204278538444  0.3332544931200965  0.5636707097613066
  0.4224855249070992  0.1666105830938684  0.5626629479493692
  0.6536263167755959  0.1665862153302198  0.5637365593594983
  0.3069149996856899  0.1662757580171454  0.5628907955225581
  0.5380480142196163  0.1665783170695893  0.5633917712289708
  0.4802738523740698  0.6665894686046030  0.5630557895535139
  0.7116559316954372  0.6665965934124574  0.5633833032108232
  0.3647270819570951  0.6665607991276343  0.5623263476951765
  0.5958196490207233  0.6665870547410141  0.5636715166944704
  0.4224852858780146  0.4999154027771530  0.5626627609565309
  0.6536263182535565  0.4999259157558822  0.5637364613028553
  0.3069141889091423  0.5002366181062131  0.5628907998526920
  0.5380480201378651  0.4999231485742768  0.5633915139283996
  0.2681845358568397  0.8332638660042778  0.5646443747002937
  0.2679690921732789  0.5011940251904939  0.5651408645762750
  0.2679689027869696  0.1653416309926587  0.5651416595879203
  0.7306206245538187  0.8333989126061871  0.4363159104779965
  0.7306207676066602  0.5000659649379370  0.4363177033822219
  0.7306207857624029  0.1667317987714702  0.4363176888690066
  0.2497487090664349  0.6672380818912524  0.5658535414974044
  0.2494287383027464  0.3332702493136138  0.5668635924220158
  0.2497485162218151  0.9992952781462480  0.5658517063746619
  0.7490881654703899  0.0000622189281213  0.4361626071503407
  0.7490880012073615  0.3333959393299702  0.4361659252366675
  0.7490881514947636  0.6667295736170491  0.4361626223479598
  0.2392051017768900  0.8334006937547012  0.4362356339688917
  0.2390183670420215  0.5032411287316580  0.4314353466561798
  0.2390198377182146  0.1635563785607745  0.4313991305432130
  0.7595798238866942  0.8332677532318260  0.5624151979635532
  0.7595804104683155  0.4999377763914836  0.5624134347637734
  0.7595804152601737  0.1665976258744785  0.5624134540127351
  0.2202764865723712  0.6684790220427647  0.5681888477064487
  0.2207104172032977  0.3332722063385579  0.5767419083087875
  0.2202764510286628  0.9980453427035587  0.5681975981932506
  0.7785672474244341  0.0000576306390312  0.4359160539065927
  0.7785671021996882  0.3333911049300586  0.4359192439062862
  0.7785672362455205  0.6667243641623500  0.4359160623264568
  0.2323663354203499  0.3328872069225733  0.4954502923457691

             NaN             NaN             NaN
             NaN             NaN             NaN
             NaN             NaN             NaN
             NaN             NaN             NaN
             NaN             NaN             NaN
             NaN             NaN             NaN
             NaN             NaN             NaN
             NaN             NaN             NaN
             NaN             NaN             NaN
             NaN             NaN             NaN
             NaN             NaN             NaN
             NaN             NaN             NaN
             NaN             NaN             NaN
             NaN             NaN             NaN
             NaN             NaN             NaN
             NaN             NaN             NaN
             NaN             NaN             NaN
             NaN             NaN             NaN
             NaN             NaN             NaN
             NaN             NaN             NaN
             NaN             NaN             NaN
             NaN             NaN             NaN
             NaN             NaN             NaN
             NaN             NaN             NaN
             NaN             NaN             NaN
             NaN             NaN             NaN
             NaN             NaN             NaN
             NaN             NaN             NaN
             NaN             NaN             NaN
             NaN             NaN             NaN
             NaN             NaN             NaN
             NaN             NaN             NaN
             NaN             NaN             NaN
             NaN             NaN             NaN
             NaN             NaN             NaN
             NaN             NaN             NaN
             NaN             NaN             NaN
             NaN             NaN             NaN
             NaN             NaN             NaN
             NaN             NaN             NaN
             NaN             NaN             NaN
             NaN             NaN             NaN
             NaN             NaN             NaN
             NaN             NaN             NaN
             NaN             NaN             NaN
             NaN             NaN             NaN
             NaN             NaN             NaN
             NaN             NaN             NaN
             NaN             NaN             NaN
             NaN             NaN             NaN
             NaN             NaN             NaN
             NaN             NaN             NaN
             NaN             NaN             NaN
             NaN             NaN             NaN
             NaN             NaN             NaN
             NaN             NaN             NaN
             NaN             NaN             NaN
             NaN             NaN             NaN
             NaN             NaN             NaN
             NaN             NaN             NaN
             NaN             NaN             NaN
             NaN             NaN             NaN
             NaN             NaN             NaN
             NaN             NaN             NaN
             NaN             NaN             NaN
             NaN             NaN             NaN
             NaN             NaN             NaN
             NaN             NaN             NaN
             NaN             NaN             NaN
             NaN             NaN             NaN
             NaN             NaN             NaN
             NaN             NaN             NaN
             NaN             NaN             NaN
             NaN             NaN             NaN
             NaN             NaN             NaN
             NaN             NaN             NaN
             NaN             NaN             NaN
             NaN             NaN             NaN
             NaN             NaN             NaN
             NaN             NaN             NaN
             NaN             NaN             NaN
             NaN             NaN             NaN
             NaN             NaN             NaN
             NaN             NaN             NaN
             NaN             NaN             NaN
             NaN             NaN             NaN
             NaN             NaN             NaN
             NaN             NaN             NaN
             NaN             NaN             NaN
             NaN             NaN             NaN
             NaN             NaN             NaN
             NaN             NaN             NaN
             NaN             NaN             NaN
             NaN             NaN             NaN
             NaN             NaN             NaN
             NaN             NaN             NaN
             NaN             NaN             NaN
             NaN             NaN             NaN
             NaN             NaN             NaN
             NaN             NaN             NaN
             NaN             NaN             NaN
             NaN             NaN             NaN
             NaN             NaN             NaN
             NaN             NaN             NaN
             NaN             NaN             NaN
             NaN             NaN             NaN
             NaN             NaN             NaN
             NaN             NaN             NaN
             NaN             NaN             NaN
             NaN             NaN             NaN
             NaN             NaN             NaN
             NaN             NaN             NaN
             NaN             NaN             NaN
             NaN             NaN             NaN
             NaN             NaN             NaN
             NaN             NaN             NaN
             NaN             NaN             NaN
             NaN             NaN             NaN
             NaN             NaN             NaN
             NaN             NaN             NaN
             NaN             NaN             NaN
