C    H    Li                            
   1.0000000000000000     
    37.2234382628999967    0.0000000000000000    0.0000000000000000
     0.0000000000000000    8.5469398498999993    0.0000000000000000
     0.0000000000000000    0.0000000000000000   27.8030738831000015
   C    H    Li
   104    16     1
Direct
  0.4666908286528401  0.0042743341667975  0.4361354967723665
  0.4666925300348610  0.5042676580640881  0.4361808233322872
  0.4336039169763928  0.2542208562047764  0.4362599838884235
  0.4335990346958696  0.7542189701224113  0.4361389024389629
  0.3340882333132100  0.0038550815150949  0.4361043257204040
  0.3341110173921033  0.5040588860797006  0.4358606134489081
  0.3017230549263778  0.2577487418821639  0.4348391715535736
  0.3016642216407865  0.7577532934626913  0.4367229380228463
  0.4004753838068958  0.0047174499790764  0.4361657270723038
  0.4004796537932449  0.5047160910362664  0.4362700050552686
  0.3671953878614813  0.2543004181563928  0.4361437358551488
  0.3671917120624852  0.7543190531343192  0.4361251639836219
  0.4667089445157796  0.9957591415751007  0.5638378591015792
  0.4667107000850195  0.4957554152865731  0.5638648979326278
  0.4336231500067745  0.2458087140593986  0.5637783035358516
  0.4336164105004469  0.7458120526524749  0.5638441608773908
  0.3341086146956639  0.9960522762840476  0.5639546449435141
  0.3341201027668819  0.4961204875884982  0.5641453077439440
  0.3017729965932640  0.2421503278500920  0.5651211226736499
  0.3016852583397694  0.7423130865229466  0.5635041802094505
  0.4004921808729857  0.9953161342058713  0.5637550036164847
  0.4004978973075161  0.4953089500493187  0.5638536480860622
  0.3672209287881323  0.2457219198053520  0.5639373499474697
  0.3672075249390161  0.7457175772743705  0.5638443512422191
  0.4666904843176395  0.1710788095370168  0.4361681970958431
  0.4666874767638527  0.6710744159959481  0.4361348705647836
  0.4336018562122641  0.4211757579891771  0.4362540812884623
  0.4335965851585293  0.9211905486683167  0.4361277932485023
  0.3341192837875255  0.1715923049442837  0.4358064848427187
  0.3340971265253574  0.6717899004834151  0.4361326839311158
  0.3016967761769493  0.4179582115511707  0.4348457728909865
  0.3016495515028412  0.9179055947216290  0.4366575831443666
  0.4004765941612418  0.1707961010917995  0.4362483097783816
  0.4004722422489766  0.6707938356892964  0.4361558245726024
  0.3671871734409478  0.4212794650736029  0.4361542874349874
  0.3671852567831398  0.9212546646676965  0.4361151758005549
  0.3016731310597651  0.0819990313512867  0.5646534741615674
  0.3016986050079065  0.5821868939386092  0.5638496651388508
  0.4667088320433092  0.3289492361472036  0.5638468787476737
  0.4667048889577214  0.8289540335136087  0.5638686875002863
  0.3671990749060353  0.0787562275960291  0.5638619170109480
  0.3672089510041971  0.5787784651128903  0.5639326090427033
  0.3341511938765752  0.3284134373912044  0.5643897243989627
  0.3341136054273633  0.8282805167358280  0.5637870810262386
  0.4336163558878959  0.0788456228675535  0.5637850045890682
  0.4336183863043439  0.5788448692930056  0.5638603349204903
  0.4004992738167120  0.3292395683868506  0.5638096991253080
  0.4004881318742313  0.8292355567322124  0.5638156058214308
  0.5330561569718268  0.9957132297839260  0.5639566869043493
  0.5330565238792702  0.4957139525756302  0.5639605137462053
  0.5661437651322305  0.7457537766767109  0.5640068946598359
  0.5661441223354003  0.2457538980082482  0.5640055042691338
  0.6656364061303174  0.9960150507055546  0.5638905217042143
  0.6656368307607025  0.4960154300304054  0.5638894439694322
  0.6980560182280491  0.7421651229535791  0.5636082589624732
  0.6980566818567953  0.2421644464262003  0.5636152666078519
  0.4998818031147580  0.7455100028396136  0.5638964827899036
  0.4998843116409295  0.2455069794160817  0.5638800735811885
  0.5992688525979861  0.9952220713728255  0.5640180601609125
  0.5992691906216400  0.4952217974497342  0.5640186145188529
  0.6325524514986102  0.7456252797740267  0.5640142666649064
  0.6325533315716799  0.2456258622497243  0.5640149718203441
  0.5330400607218360  0.0043008314115965  0.4360420642000148
  0.5330404550366875  0.5043009033965158  0.4360491555032446
  0.5661283219142783  0.7542556595313054  0.4359971237294901
  0.5661284158985775  0.2542555349994793  0.4359985569617604
  0.6656219800531608  0.0039813895323492  0.4361144137412481
  0.6656225077612912  0.5039821478791818  0.4361144721333263
  0.6980421819559803  0.7578315571246739  0.4363930993076130
  0.6980427167334408  0.2578311861530173  0.4363951572493024
  0.4998655300815911  0.7545098010808762  0.4361054871077990
  0.4998676601054254  0.2545124010711675  0.4361307360934178
  0.5992539602292710  0.0047810331600951  0.4359847214031787
  0.5992542503144989  0.5047804970130469  0.4359850357354597
  0.6325376570796539  0.7543735163798215  0.4359898814415814
  0.6325384413807855  0.2543733122684095  0.4359900722685422
  0.5330586544543016  0.8289194867404021  0.5639642360693780
  0.5330595511301078  0.3289188902451886  0.5639622793508302
  0.5661451794000084  0.5787721994529011  0.5640163986329458
  0.5661446475713762  0.0787717742002568  0.5640143011507560
  0.6656297920039034  0.8282024406316322  0.5639008212479281
  0.6656306848947747  0.3282025814695843  0.5639026487697154
  0.6980702644919322  0.5820187747074760  0.5636509837913910
  0.6980701389145919  0.0820169227685599  0.5636574228177985
  0.4998846229931732  0.5791876373096280  0.5639140673498821
  0.4998841234134678  0.0791858508944339  0.5638962640479986
  0.5992708427690856  0.8291590854410172  0.5640379200335058
  0.5992714674863535  0.3291588349476265  0.5640380449410780
  0.6325572730928835  0.5786802993890239  0.5640119741370671
  0.6325571327358172  0.0786801925676901  0.5640123547211657
  0.6980555324256867  0.9179805399186396  0.4363509935851249
  0.6980560080897789  0.4179807146569455  0.4363525785801171
  0.4998657085718963  0.9208378959572144  0.4360851877868906
  0.4998678187040033  0.4208355164965087  0.4361158424188159
  0.5330420755097607  0.6710948383405760  0.4360399673926051
  0.5330428518971565  0.1710940885505007  0.4360418193749731
  0.6325419249743311  0.9213187863791362  0.4359916513601790
  0.6325426146488279  0.4213191997393242  0.4359916904780415
  0.6656160086391254  0.6717967092757227  0.4361022317801606
  0.6656165299294651  0.1717960277935494  0.4361029121929608
  0.5661290346692890  0.9212377360323623  0.4359873361692159
  0.5661290588446757  0.4212379087072136  0.4359900449197667
  0.5992555696271658  0.6708459012427362  0.4359654876590044
  0.5992559656816590  0.1708462702538668  0.4359652462965059
  0.7237789736295888  0.9784984825549772  0.4366734050214099
  0.7237795464469364  0.4784977429232538  0.4366764093175972
  0.7237679096107036  0.8027524991650719  0.5632191540594909
  0.7237689308671397  0.3027488839123643  0.5632327694327156
  0.7237541752417597  0.6972428832818471  0.4367815771184159
  0.7237548116578448  0.1972436157480669  0.4367855735459938
  0.7237927218220753  0.0214948784612075  0.5633419942122256
  0.7237930110976564  0.5214974040857849  0.5633297060765998
  0.2759210746824389  0.0215699547945257  0.5651027037081919
  0.2758932104600884  0.5219333428575946  0.5637574145611014
  0.2760223385117461  0.1965811582455503  0.4334767270274385
  0.2759334060521409  0.6972618213922429  0.4375097453104226
  0.2760304092782097  0.3030229862292952  0.5666775520392009
  0.2759567622063641  0.8027967690565977  0.5629220457007758
  0.2759002551078714  0.9782915048189302  0.4373457491958674
  0.2759821321707390  0.4789702706393961  0.4335179968850849
  0.2188096480216318  0.3297664272878689  0.4988650338695138

             NaN             NaN             NaN
             NaN             NaN             NaN
             NaN             NaN             NaN
             NaN             NaN             NaN
             NaN             NaN             NaN
             NaN             NaN             NaN
             NaN             NaN             NaN
             NaN             NaN             NaN
             NaN             NaN             NaN
             NaN             NaN             NaN
             NaN             NaN             NaN
             NaN             NaN             NaN
             NaN             NaN             NaN
             NaN             NaN             NaN
             NaN             NaN             NaN
             NaN             NaN             NaN
             NaN             NaN             NaN
             NaN             NaN             NaN
             NaN             NaN             NaN
             NaN             NaN             NaN
             NaN             NaN             NaN
             NaN             NaN             NaN
             NaN             NaN             NaN
             NaN             NaN             NaN
             NaN             NaN             NaN
             NaN             NaN             NaN
             NaN             NaN             NaN
             NaN             NaN             NaN
             NaN             NaN             NaN
             NaN             NaN             NaN
             NaN             NaN             NaN
             NaN             NaN             NaN
             NaN             NaN             NaN
             NaN             NaN             NaN
             NaN             NaN             NaN
             NaN             NaN             NaN
             NaN             NaN             NaN
             NaN             NaN             NaN
             NaN             NaN             NaN
             NaN             NaN             NaN
             NaN             NaN             NaN
             NaN             NaN             NaN
             NaN             NaN             NaN
             NaN             NaN             NaN
             NaN             NaN             NaN
             NaN             NaN             NaN
             NaN             NaN             NaN
             NaN             NaN             NaN
             NaN             NaN             NaN
             NaN             NaN             NaN
             NaN             NaN             NaN
             NaN             NaN             NaN
             NaN             NaN             NaN
             NaN             NaN             NaN
             NaN             NaN             NaN
             NaN             NaN             NaN
             NaN             NaN             NaN
             NaN             NaN             NaN
             NaN             NaN             NaN
             NaN             NaN             NaN
             NaN             NaN             NaN
             NaN             NaN             NaN
             NaN             NaN             NaN
             NaN             NaN             NaN
             NaN             NaN             NaN
             NaN             NaN             NaN
             NaN             NaN             NaN
             NaN             NaN             NaN
             NaN             NaN             NaN
             NaN             NaN             NaN
             NaN             NaN             NaN
             NaN             NaN             NaN
             NaN             NaN             NaN
             NaN             NaN             NaN
             NaN             NaN             NaN
             NaN             NaN             NaN
             NaN             NaN             NaN
             NaN             NaN             NaN
             NaN             NaN             NaN
             NaN             NaN             NaN
             NaN             NaN             NaN
             NaN             NaN             NaN
             NaN             NaN             NaN
             NaN             NaN             NaN
             NaN             NaN             NaN
             NaN             NaN             NaN
             NaN             NaN             NaN
             NaN             NaN             NaN
             NaN             NaN             NaN
             NaN             NaN             NaN
             NaN             NaN             NaN
             NaN             NaN             NaN
             NaN             NaN             NaN
             NaN             NaN             NaN
             NaN             NaN             NaN
             NaN             NaN             NaN
             NaN             NaN             NaN
             NaN             NaN             NaN
             NaN             NaN             NaN
             NaN             NaN             NaN
             NaN             NaN             NaN
             NaN             NaN             NaN
             NaN             NaN             NaN
             NaN             NaN             NaN
             NaN             NaN             NaN
             NaN             NaN             NaN
             NaN             NaN             NaN
             NaN             NaN             NaN
             NaN             NaN             NaN
             NaN             NaN             NaN
             NaN             NaN             NaN
             NaN             NaN             NaN
             NaN             NaN             NaN
             NaN             NaN             NaN
             NaN             NaN             NaN
             NaN             NaN             NaN
             NaN             NaN             NaN
             NaN             NaN             NaN
             NaN             NaN             NaN
             NaN             NaN             NaN
             NaN             NaN             NaN
