C4                                      
   1.0000000000000000     
     7.4018740654000004    0.0000000000000000    0.0000000000000000
    -3.7009378863000002    6.4102104834000002    0.0000000000000000
     0.0000000000000000    0.0000000000000000   27.8030738831000015
   C    Li
    36     1
Direct
  0.0000000000000000  0.0000000000000000  0.4353673425533700
  0.9999999999444142  0.3333333431926064  0.4353673425533700
  0.9999999999668248  0.6666666865412125  0.4353673425533700
  0.3333333433127876  0.0000000000000000  0.4353673425533700
  0.3333333432572019  0.3333333431926064  0.4353673425533700
  0.3333333432796124  0.6666666865412125  0.4353673425533700
  0.6666666864904727  0.0000000000000000  0.4353673425533700
  0.6666666864348869  0.3333333431926064  0.4353673425533700
  0.6666666865924000  0.6666666865412125  0.4353673425533700
  0.0000000000000000  0.0000000000000000  0.5646326276621210
  0.9999999999444142  0.3333333431926064  0.5646326276621210
  0.9999999999668248  0.6666666865412125  0.5646326276621210
  0.3333333433127876  0.0000000000000000  0.5646326276621210
  0.3333333432572019  0.3333333431926064  0.5646326276621210
  0.3333333432796124  0.6666666865412125  0.5646326276621210
  0.6666666864904727  0.0000000000000000  0.5646326276621210
  0.6666666864348869  0.3333333431926064  0.5646326276621210
  0.6666666865924000  0.6666666865412125  0.5646326276621210
  0.1111111044754338  0.2222222090349248  0.4353625082157109
  0.1111111045179385  0.5555555224313196  0.4353625082157109
  0.1111111418041304  0.8888889551685608  0.4353625082157109
  0.4444444776455256  0.2222222090349248  0.4353625082157109
  0.4444444476956235  0.5555555224313196  0.4353625082157109
  0.4444444775512650  0.8888889551685608  0.4353625082157109
  0.7777777911010091  0.2222222090349248  0.4353625082157109
  0.7777777910084112  0.5555555224313196  0.4353625082157109
  0.7777777910067485  0.8888889551685608  0.4353625082157109
  0.2222222388227593  0.1111111045174624  0.5646374619998582
  0.2222222388041857  0.4444444775062806  0.5646374619998582
  0.2222222089322798  0.7777777910586749  0.5646374619998582
  0.5555555820004514  0.1111111045174624  0.5646374619998582
  0.5555555819818707  0.4444444775062806  0.5646374619998582
  0.5555555821023717  0.7777777910586749  0.5646374619998582
  0.8888888955910303  0.1111111045174624  0.5646374619998582
  0.8888888954373542  0.4444444775062806  0.5646374619998582
  0.8888888955578622  0.7777777910586749  0.5646374619998582
  0.5555555819818707  0.4444444775062806  0.0000000000000000

  0.00000000E+00  0.00000000E+00  0.00000000E+00
  0.00000000E+00  0.00000000E+00  0.00000000E+00
  0.00000000E+00  0.00000000E+00  0.00000000E+00
  0.00000000E+00  0.00000000E+00  0.00000000E+00
  0.00000000E+00  0.00000000E+00  0.00000000E+00
  0.00000000E+00  0.00000000E+00  0.00000000E+00
  0.00000000E+00  0.00000000E+00  0.00000000E+00
  0.00000000E+00  0.00000000E+00  0.00000000E+00
  0.00000000E+00  0.00000000E+00  0.00000000E+00
  0.00000000E+00  0.00000000E+00  0.00000000E+00
  0.00000000E+00  0.00000000E+00  0.00000000E+00
  0.00000000E+00  0.00000000E+00  0.00000000E+00
  0.00000000E+00  0.00000000E+00  0.00000000E+00
  0.00000000E+00  0.00000000E+00  0.00000000E+00
  0.00000000E+00  0.00000000E+00  0.00000000E+00
  0.00000000E+00  0.00000000E+00  0.00000000E+00
  0.00000000E+00  0.00000000E+00  0.00000000E+00
  0.00000000E+00  0.00000000E+00  0.00000000E+00
  0.00000000E+00  0.00000000E+00  0.00000000E+00
  0.00000000E+00  0.00000000E+00  0.00000000E+00
  0.00000000E+00  0.00000000E+00  0.00000000E+00
  0.00000000E+00  0.00000000E+00  0.00000000E+00
  0.00000000E+00  0.00000000E+00  0.00000000E+00
  0.00000000E+00  0.00000000E+00  0.00000000E+00
  0.00000000E+00  0.00000000E+00  0.00000000E+00
  0.00000000E+00  0.00000000E+00  0.00000000E+00
  0.00000000E+00  0.00000000E+00  0.00000000E+00
  0.00000000E+00  0.00000000E+00  0.00000000E+00
  0.00000000E+00  0.00000000E+00  0.00000000E+00
  0.00000000E+00  0.00000000E+00  0.00000000E+00
  0.00000000E+00  0.00000000E+00  0.00000000E+00
  0.00000000E+00  0.00000000E+00  0.00000000E+00
  0.00000000E+00  0.00000000E+00  0.00000000E+00
  0.00000000E+00  0.00000000E+00  0.00000000E+00
  0.00000000E+00  0.00000000E+00  0.00000000E+00
  0.00000000E+00  0.00000000E+00  0.00000000E+00
  0.00000000E+00  0.00000000E+00  0.00000000E+00
