C    Li                                 
   1.0000000000000000     
     7.4018740654000004    0.0000000000000000    0.0000000000000000
    -3.7009378863000002    6.4102104834000002    0.0000000000000000
     0.0000000000000000    0.0000000000000000   27.8030738831000015
   C    Li
    36     1
Direct
  0.0001390736045872 -0.0004855408074991  0.4303534207639961
  0.9995220728464669  0.3325886902124246  0.4301577267229040
  0.9996620786432434  0.6659911339084780  0.4302122735393233
  0.3327131485795660 -0.0004888388850406  0.4303522282655005
  0.3324282991427737  0.3315217682502409  0.4296411312165210
  0.3322027896090121  0.6655937824969197  0.4292293267146117
  0.6665656492520193 -0.0002079592895549  0.4301178958397253
  0.6664015785105770  0.3325900091430980  0.4301568489071704
  0.6667270512935115  0.6655985224855258  0.4292296005846062
  0.0002906702788287  0.0003522672427711  0.5700471952092300
  0.9999880741995877  0.3336048140201427  0.5698148367944710
  1.0000976607836207  0.6668661636078893  0.5698179506335451
  0.3333922732819202  0.0003504938571887  0.5700481736838624
  0.3332817334501475  0.3332351730514236  0.5700926582191218
  0.3328265298525335  0.6667475296384531  0.5708019449520234
  0.6673204285363151  0.0013063663211699  0.5708222094619393
  0.6669468087282788  0.3336071443415806  0.5698163538092876
  0.6672540655485539  0.6667519461456936  0.5708024763159100
  0.1105950125488623  0.2213417741727160  0.4301089157934565
  0.1099284677033246  0.5544331134059948  0.4299891503430926
  0.1108133486311658  0.8882935763446675  0.4302916568445264
  0.4440762499796685  0.2213403013932185  0.4301077483253136
  0.4435376350736030  0.5537483760727444  0.4286356040566957
  0.4438927743379975  0.8884592763136706  0.4299385452877221
  0.7776382658457958  0.2219451851948541  0.4304053348858736
  0.7778337391126573  0.5544359454563720  0.4299889974108357
  0.7779019554566976  0.8884632769127604  0.4299395566410136
  0.2222865693665416  0.1112333329452249  0.5698264873364027
  0.2219969057786480  0.4442386892559005  0.5701682709689133
  0.2220230987806682  0.7782977383054401  0.5701223012817337
  0.5556234480628977  0.1116778911872735  0.5701639758931288
  0.5555767236420659  0.4442404620609900  0.5701696277386494
  0.5559631826960691  0.7785900114455278  0.5719520699336182
  0.8893923946071889  0.1116784304641880  0.5701625576417663
  0.8890177126154837  0.4447017783453980  0.5698019117816577
  0.8896142313891414  0.7782998509483005  0.5701222507559544
  0.5274894526033415  0.7216459680568316  0.4965902493416046

             NaN             NaN             NaN
             NaN             NaN             NaN
             NaN             NaN             NaN
             NaN             NaN             NaN
             NaN             NaN             NaN
             NaN             NaN             NaN
             NaN             NaN             NaN
             NaN             NaN             NaN
             NaN             NaN             NaN
             NaN             NaN             NaN
             NaN             NaN             NaN
             NaN             NaN             NaN
             NaN             NaN             NaN
             NaN             NaN             NaN
             NaN             NaN             NaN
             NaN             NaN             NaN
             NaN             NaN             NaN
             NaN             NaN             NaN
             NaN             NaN             NaN
             NaN             NaN             NaN
             NaN             NaN             NaN
             NaN             NaN             NaN
             NaN             NaN             NaN
             NaN             NaN             NaN
             NaN             NaN             NaN
             NaN             NaN             NaN
             NaN             NaN             NaN
             NaN             NaN             NaN
             NaN             NaN             NaN
             NaN             NaN             NaN
             NaN             NaN             NaN
             NaN             NaN             NaN
             NaN             NaN             NaN
             NaN             NaN             NaN
             NaN             NaN             NaN
             NaN             NaN             NaN
             NaN             NaN             NaN
