C    Li
   1.0000000000000000     
   7.4018740654000004   0.0000000000000000   0.0000000000000000
  -3.7009378863000002   6.4102104834000002   0.0000000000000000
   0.0000000000000000   0.0000000000000000  27.8030738831000015
C    Li
36  1  
Direct
  0.0005805066469122  0.0002681652271761  0.4301718724684920  
  0.9999260815049450  0.3333302085885990  0.4301267449082640  
  0.9999921756205340  0.6666510378486170  0.4301856626664890  
  0.3330210018930520  0.0002681652271761  0.4301718724684920  
  0.3329534300917420  0.3325735168616860  0.4299639522745410  
  0.3326891794583630  0.6664901384417450  0.4295828025390800  
  0.6669659414785440  0.0005985099761290  0.4297318049748280  
  0.6667374702703480  0.3333302085885990  0.4301267449082640  
  0.6671343023141670  0.6664901384417450  0.4295828025390800  
  0.0001616308351942  0.0000695398871784  0.5700357227520880  
  0.9997672329486700  0.3332832236112470  0.5698635667349170  
  0.9999633410427510  0.6665933686930861  0.5698589699010270  
  0.3332412523647860  0.0000695398871784  0.5700357227520880  
  0.3331650974085960  0.3329968514954160  0.5701673695340190  
  0.3326600135655870  0.6664668050959220  0.5706143772197340  
  0.6670520524026100  0.0007707318242751  0.5704873272717070  
  0.6668493338492710  0.3332832236112470  0.5698635667349170  
  0.6671401348611280  0.6664668050959220  0.5706143772197340  
  0.1110192349114740  0.2221196291256150  0.4301143629230990  
  0.1104318266643530  0.5552367901109680  0.4300943171726250  
  0.1111349674847160  0.8889366065297540  0.4301940261330090  
  0.4444337673001750  0.2221196291256150  0.4301143629230990  
  0.4441712768044890  0.5550091806490300  0.4293272257017480  
  0.4442082476759740  0.8892778213042620  0.4297199899600060  
  0.7780595824055180  0.2227857916439430  0.4301605920266380  
  0.7781383365416450  0.5552367901109680  0.4300943171726250  
  0.7784028870177410  0.8892778213042620  0.4297199899600060  
  0.2221283083710470  0.1109232436140530  0.5698877302680780  
  0.2218038436405930  0.4440062928388850  0.5702113310444900  
  0.2218920043100710  0.7779825715107340  0.5700865550366530  
  0.5554606210482330  0.1113553232120380  0.5700798731756510  
  0.5555357924780679  0.4440062928388850  0.5702113310444900  
  0.5556466425989161  0.7779599120517630  0.5713896242564400  
  0.8892280752378240  0.1113553232120380  0.5700798731756510  
  0.8888809509132900  0.4444285884581520  0.5698408839024510  
  0.8894238806321300  0.7779825715107340  0.5700865550366530  
  0.5277777985006790  0.7222222239018310  0.4974012631144970  
