C    H    Li                            
   1.0000000000000000     
    37.2234382628999967    0.0000000000000000    0.0000000000000000
     0.0000000000000000    8.5469398498999993    0.0000000000000000
     0.0000000000000000    0.0000000000000000   27.8030738831000015
   C    H    Li
   104    16     1
Direct
  0.4664127593943038  0.0049505453545838  0.4364586750336619
  0.4663992776594381  0.5048753993258661  0.4365782751375762
  0.4332269736529266  0.2549727543757634  0.4368027352936185
  0.4332212326272916  0.7548433242721322  0.4364441413041676
  0.3336579533842945  0.0042659402430545  0.4360853895647872
  0.3335610159409944  0.5052167607869449  0.4354738188359177
  0.3012020763490831  0.2573385943379094  0.4310230173845081
  0.3012542667700705  0.7582986035492845  0.4374559769312299
  0.4001247163468973  0.0050626444149938  0.4365089204051186
  0.4000602009741961  0.5050315302218021  0.4368204707959955
  0.3668159989975599  0.2548282310791998  0.4364381586697174
  0.3668626533807657  0.7548948375678807  0.4364104943958172
  0.4664311782060824  0.9954017239172118  0.5634174687638955
  0.4664404256331079  0.4953459285424947  0.5635253560584749
  0.4332593488884677  0.2453836713855884  0.5632639472558398
  0.4332451859982453  0.7454515194830637  0.5634652630196575
  0.3335693607965879  0.9954036366419858  0.5639522308383730
  0.3337021111989924  0.4957882467787188  0.5646554732780978
  0.3011515826797905  0.2420266968380952  0.5677000446444541
  0.3012419011523298  0.7422325629078651  0.5633712167893817
  0.4000957985224627  0.9953270640858061  0.5631193434036149
  0.4001550564685184  0.4952052190209628  0.5635378572255051
  0.3668434489202368  0.2454613980607994  0.5635854477174317
  0.3668622066623363  0.7453742891526628  0.5635157183536327
  0.4663984077653880  0.1717193983476116  0.4365610177903207
  0.4664033683251455  0.6716469762973750  0.4364470704788239
  0.4332158147207898  0.4216250949358598  0.4368003154377944
  0.4332190717629090  0.9217333650229501  0.4364392146402288
  0.3336118433708805  0.1714185747804176  0.4351631003608436
  0.3336496168000470  0.6723655452281011  0.4362858406998982
  0.3010967990480113  0.4194526797058182  0.4313774001159200
  0.3012485086001591  0.9183614140368009  0.4372571922623024
  0.4000677777229122  0.1716528371336357  0.4367697281815249
  0.4001119827424820  0.6716027853613478  0.4365134800829877
  0.3667783126590277  0.4218607546805525  0.4364883641729728
  0.3668603999912193  0.9217312286071701  0.4363588757007623
  0.3011732822739053  0.0806103602140088  0.5669403357075500
  0.3012807256963765  0.5819732929053641  0.5643359440387249
  0.4664355995274076  0.3286121359349142  0.5634660970963343
  0.4664332642357064  0.8286540126302366  0.5635077745431510
  0.3668225240553333  0.0785422560254621  0.5633721445651911
  0.3668925073066737  0.5785400894732690  0.5638016307601914
  0.3336791616000610  0.3287027748167987  0.5650837987409032
  0.3336406229838301  0.8279532600996387  0.5635304550166333
  0.4332492474184264  0.0786663478891169  0.5632236505826317
  0.4332633306634284  0.5785895003379858  0.5635113742151913
  0.4001283113606626  0.3287250910569903  0.5633403082015948
  0.4001269266273673  0.8286946187838468  0.5633408452856680
  0.5327795009531402  0.9952488423260492  0.5637680726434819
  0.5327774508497186  0.4952463965810900  0.5637863892543679
  0.5659154324101107  0.7452696969340548  0.5638675217151212
  0.5659168897254963  0.2452658786892845  0.5638657436863201
  0.6654326330021645  0.9954864115708797  0.5638183848346064
  0.6654323460106387  0.4954903149676003  0.5638157240429725
  0.6978397222356729  0.7416555286545559  0.5635122665438032
  0.6978384330434081  0.2416542120713860  0.5635228823365576
  0.4995912084141751  0.7452758785027379  0.5636372489579142
  0.4995996235736107  0.2452434348972543  0.5635895523582594
  0.5990312175117534  0.9948052208713480  0.5639258710917774
  0.5990298275179722  0.4948130987524405  0.5639270714722864
  0.6323244907252008  0.7451102937429920  0.5639507770465435
  0.6323234335818185  0.2451112404355623  0.5639534678529532
  0.5327423262663706  0.0050474355825427  0.4362054066090283
  0.5327425606970740  0.5050266839149614  0.4362292899534809
  0.5658799030876961  0.7549695675984361  0.4361264286031528
  0.5658814070951488  0.2549768979841701  0.4361356064467203
  0.6653930708339891  0.0047100796430137  0.4361859550185075
  0.6653937598776339  0.5047123040598827  0.4361856792136469
  0.6977973795832727  0.7585441286016953  0.4364875635417899
  0.6977969332160958  0.2585420922616558  0.4364859173637086
  0.4995555642395798  0.7549944495562406  0.4363346601430149
  0.4995623212790749  0.2550461381657390  0.4364264879325165
  0.5989897363855057  0.0054134905110599  0.4360723344978776
  0.5989914124091749  0.5054144991325475  0.4360759173487223
  0.6322854722978005  0.7551156953871411  0.4360527914714727
  0.6322849827056983  0.2551129649792936  0.4360525170659159
  0.5327821146730073  0.8285443366312817  0.5637757993014426
  0.5327830297474491  0.3285267176469875  0.5637748867588470
  0.5659192674797500  0.5783232866162857  0.5638908567098493
  0.5659170737444985  0.0783199209909215  0.5638835939663974
  0.6654253599624703  0.8276852973198583  0.5638373976344779
  0.6654245512163121  0.3276847107814269  0.5638408098694144
  0.6978596295722700  0.5814558702755637  0.5635632988221364
  0.6978593870880501  0.0814524320477149  0.5635737226564362
  0.4996036204641350  0.5786399615053107  0.5636701964372061
  0.4995991889918515  0.0786599128090664  0.5636047311334924
  0.5990353974844214  0.8285883289891315  0.5639508657233839
  0.5990348248601375  0.3285844543098335  0.5639528084420330
  0.6323290722313226  0.5781947455941495  0.5639421610201539
  0.6323282305457242  0.0781908297961638  0.5639441353011697
  0.6978158341625370  0.9187636369081731  0.4364314104954571
  0.6978153745927774  0.4187669852798612  0.4364292761302348
  0.4995585228828282  0.9216750709323536  0.4363073413727894
  0.4995616021879545  0.4216211339134441  0.4364047282476908
  0.5327414616316203  0.6717319577390143  0.4362114996783724
  0.5327459341987854  0.1717489436421168  0.4362256960805972
  0.6322893904667597  0.9220218774279656  0.4360593022033281
  0.6322883048967682  0.4220255812176666  0.4360600817116485
  0.6653849603855948  0.6725468692228613  0.4361670011985691
  0.6653856694641582  0.1725458066747680  0.4361665659324044
  0.5658805415636026  0.9219515492099404  0.4361047372590678
  0.5658797855621645  0.4219442739284234  0.4361181886519188
  0.5989907464710390  0.6716544574814114  0.4360480969303512
  0.5989933654143447  0.1716541933503301  0.4360478200285127
  0.7235426581186796  0.9792823695272063  0.4367913198856381
  0.7235424869513970  0.4792834851106531  0.4367880483621407
  0.7235552296401392  0.8022570959397433  0.5630865160227055
  0.7235540337874936  0.3022562917364858  0.5631015440556703
  0.7235113472221163  0.6979330447867925  0.4369142629292104
  0.7235112755751871  0.1979335702216090  0.4369119590440012
  0.7235854527250817  0.0209266699391507  0.5632173605121588
  0.7235854069577328  0.5209271863721837  0.5632038441224506
  0.2756781092744578  0.0193215052993990  0.5707624497339037
  0.2752884948730263  0.5226528858279943  0.5660790880481309
  0.2761167549100376  0.1953426985096212  0.4232196715458396
  0.2755190649994951  0.6978843996768003  0.4391027105119208
  0.2759381066873891  0.3019467508763781  0.5767550254844508
  0.2755151285997857  0.8026937104107804  0.5626542344951259
  0.2754605683303782  0.9785398511055504  0.4386322588165264
  0.2759725244303691  0.4813100806076190  0.4240781246943948
  0.2708516452026750  0.3172912560503908  0.4991849077182648

             NaN             NaN             NaN
             NaN             NaN             NaN
             NaN             NaN             NaN
             NaN             NaN             NaN
             NaN             NaN             NaN
             NaN             NaN             NaN
             NaN             NaN             NaN
             NaN             NaN             NaN
             NaN             NaN             NaN
             NaN             NaN             NaN
             NaN             NaN             NaN
             NaN             NaN             NaN
             NaN             NaN             NaN
             NaN             NaN             NaN
             NaN             NaN             NaN
             NaN             NaN             NaN
             NaN             NaN             NaN
             NaN             NaN             NaN
             NaN             NaN             NaN
             NaN             NaN             NaN
             NaN             NaN             NaN
             NaN             NaN             NaN
             NaN             NaN             NaN
             NaN             NaN             NaN
             NaN             NaN             NaN
             NaN             NaN             NaN
             NaN             NaN             NaN
             NaN             NaN             NaN
             NaN             NaN             NaN
             NaN             NaN             NaN
             NaN             NaN             NaN
             NaN             NaN             NaN
             NaN             NaN             NaN
             NaN             NaN             NaN
             NaN             NaN             NaN
             NaN             NaN             NaN
             NaN             NaN             NaN
             NaN             NaN             NaN
             NaN             NaN             NaN
             NaN             NaN             NaN
             NaN             NaN             NaN
             NaN             NaN             NaN
             NaN             NaN             NaN
             NaN             NaN             NaN
             NaN             NaN             NaN
             NaN             NaN             NaN
             NaN             NaN             NaN
             NaN             NaN             NaN
             NaN             NaN             NaN
             NaN             NaN             NaN
             NaN             NaN             NaN
             NaN             NaN             NaN
             NaN             NaN             NaN
             NaN             NaN             NaN
             NaN             NaN             NaN
             NaN             NaN             NaN
             NaN             NaN             NaN
             NaN             NaN             NaN
             NaN             NaN             NaN
             NaN             NaN             NaN
             NaN             NaN             NaN
             NaN             NaN             NaN
             NaN             NaN             NaN
             NaN             NaN             NaN
             NaN             NaN             NaN
             NaN             NaN             NaN
             NaN             NaN             NaN
             NaN             NaN             NaN
             NaN             NaN             NaN
             NaN             NaN             NaN
             NaN             NaN             NaN
             NaN             NaN             NaN
             NaN             NaN             NaN
             NaN             NaN             NaN
             NaN             NaN             NaN
             NaN             NaN             NaN
             NaN             NaN             NaN
             NaN             NaN             NaN
             NaN             NaN             NaN
             NaN             NaN             NaN
             NaN             NaN             NaN
             NaN             NaN             NaN
             NaN             NaN             NaN
             NaN             NaN             NaN
             NaN             NaN             NaN
             NaN             NaN             NaN
             NaN             NaN             NaN
             NaN             NaN             NaN
             NaN             NaN             NaN
             NaN             NaN             NaN
             NaN             NaN             NaN
             NaN             NaN             NaN
             NaN             NaN             NaN
             NaN             NaN             NaN
             NaN             NaN             NaN
             NaN             NaN             NaN
             NaN             NaN             NaN
             NaN             NaN             NaN
             NaN             NaN             NaN
             NaN             NaN             NaN
             NaN             NaN             NaN
             NaN             NaN             NaN
             NaN             NaN             NaN
             NaN             NaN             NaN
             NaN             NaN             NaN
             NaN             NaN             NaN
             NaN             NaN             NaN
             NaN             NaN             NaN
             NaN             NaN             NaN
             NaN             NaN             NaN
             NaN             NaN             NaN
             NaN             NaN             NaN
             NaN             NaN             NaN
             NaN             NaN             NaN
             NaN             NaN             NaN
             NaN             NaN             NaN
             NaN             NaN             NaN
             NaN             NaN             NaN
             NaN             NaN             NaN
             NaN             NaN             NaN
             NaN             NaN             NaN
