C    H    Li                            
   1.0000000000000000     
    37.2234382628999967    0.0000000000000000    0.0000000000000000
     0.0000000000000000    8.5469398498999993    0.0000000000000000
     0.0000000000000000    0.0000000000000000   27.8030738831000015
   C    H    Li
   104    16     1
Direct
  0.4665051728912692  0.0045993577133338  0.4364054047801168
  0.4664896891205350  0.5045212472378217  0.4365078591802951
  0.4333167871442762  0.2546189534355594  0.4366916480984390
  0.4333159937238903  0.7545017958843458  0.4363672621410531
  0.3337482121763439  0.0039278849171870  0.4359531670925628
  0.3336480362551693  0.5048556121019909  0.4354982253196955
  0.3012551854920498  0.2570228946834835  0.4315739070453113
  0.3013533105890718  0.7579281486197332  0.4370441421228081
  0.4002169432264050  0.0047207667524714  0.4364112871892749
  0.4001500368909555  0.5046862335291415  0.4367018569952951
  0.3668966298141862  0.2544749419352405  0.4363967009936929
  0.3669578030043152  0.7545436692141918  0.4362604326429148
  0.4665107400658800  0.9956954125762971  0.5634966968696440
  0.4665209770777859  0.4956407670516108  0.5636004797399836
  0.4333388357975912  0.2456964049951829  0.5633920735386252
  0.4333275969718520  0.7457585299425540  0.5635511787749374
  0.3336518029345418  0.9957820900978097  0.5639733872185468
  0.3337868165390211  0.4961213159245650  0.5647680951281442
  0.3012165238650123  0.2423911631377419  0.5673537713094918
  0.3013283288521139  0.7426025751805773  0.5635847778014905
  0.4001800073437233  0.9956511297305081  0.5632423429217173
  0.4002375785664560  0.4955249193464935  0.5636566798796928
  0.3669169387139986  0.2458109743207012  0.5636838558307972
  0.3669440710038064  0.7457249109331334  0.5636354685479951
  0.4664885016247191  0.1713637684835288  0.4364922600176486
  0.4664949975392613  0.6712916847788274  0.4363922361361050
  0.4333061295589714  0.4212747544223618  0.4366875292719363
  0.4333126471158086  0.9213928248763039  0.4363628651627525
  0.3336896100624256  0.1710887151125148  0.4352592303325552
  0.3337479362895628  0.6719935982582250  0.4361056420654216
  0.3011550093789255  0.4190614772733111  0.4318262638912507
  0.3013429692422436  0.9179778902588129  0.4368775548542851
  0.4001552891461598  0.1713072522108972  0.4366573297275870
  0.4002065289599688  0.6712539708857773  0.4364084966264858
  0.3668620005148146  0.4215097007329485  0.4364324573908213
  0.3669516418579039  0.9213886173140554  0.4362204142106161
  0.3012438835070286  0.0810330348147928  0.5666718503275219
  0.3013726273517336  0.5823307947106922  0.5645447576037689
  0.4665141043104011  0.3289103868438606  0.5635540566238250
  0.4665136866091366  0.8289506590480475  0.5635762804903431
  0.3669035082029768  0.0788939516116738  0.5634646865891680
  0.3669740935358701  0.5788774569894188  0.5639338735869790
  0.3337514014349885  0.3290463450038772  0.5650708874779387
  0.3337255208849081  0.8283170935611742  0.5636434531082373
  0.4333321680938150  0.0789752718087759  0.5633441982753026
  0.4333479064323400  0.5788937491218689  0.5636064661480813
  0.4002087088740162  0.3290604107143132  0.5634768756635297
  0.4002117583262360  0.8290296200920929  0.5634473961776376
  0.5328607775989085  0.9955484442741681  0.5637870868564079
  0.5328599938729411  0.4955470259883012  0.5638036999829549
  0.5659986693787942  0.7455744339449824  0.5638680815021268
  0.5659995330761254  0.2455707189704800  0.5638669872473536
  0.6655143687171213  0.9957999953792576  0.5638081971584400
  0.6655141548820126  0.4958033409289421  0.5638056206878646
  0.6979197353497290  0.7419714939397447  0.5635292491865047
  0.6979183655513345  0.2419712253915453  0.5635368542206538
  0.4996727620246743  0.7455674125638817  0.5636787591087745
  0.4996797233419570  0.2455375226399973  0.5636427514784593
  0.5991135713421382  0.9951144980692233  0.5639102453944678
  0.5991127926203464  0.4951214825267794  0.5639115779269943
  0.6324057551437535  0.7454263369441160  0.5639330730722497
  0.6324045386222867  0.2454270694254126  0.5639347099608866
  0.5328374867947816  0.0046665889209441  0.4362021583776141
  0.5328375768196014  0.5046459280715382  0.4362199706217944
  0.5659759598107983  0.7545904520999533  0.4361333538068769
  0.5659772862356617  0.2545970426548331  0.4361412765923061
  0.6654905635227470  0.0043288259730981  0.4361923364887872
  0.6654910703798248  0.5043308322264844  0.4361920844911188
  0.6978928498095209  0.7581615212558920  0.4364702786677150
  0.6978922933774682  0.2581594800852320  0.4364698499551444
  0.4996498251987723  0.7546276680097269  0.4363091412013596
  0.4996550920057886  0.2546792438276504  0.4363872563162765
  0.5990862266482820  0.0050383034686709  0.4360905828588131
  0.5990877149447666  0.5050392883102693  0.4360936407624651
  0.6323824932876930  0.7547363274284149  0.4360651894939769
  0.6323818426154189  0.2547336976077444  0.4360654902723824
  0.5328641573299411  0.8288423504225642  0.5637938980825372
  0.5328643387007138  0.3288253650875528  0.5637959856102517
  0.5660020282925146  0.5786313821702124  0.5638894677738903
  0.5659987771872925  0.0786292694604892  0.5638827020835652
  0.6655052303417207  0.8280017932112281  0.5638283425514438
  0.6655039001484194  0.3280030252416876  0.5638299769679389
  0.6979407475093832  0.5817738247096402  0.5635775673958119
  0.6979405123677996  0.0817714761943979  0.5635859915782275
  0.4996853644305746  0.5789370698285510  0.5637125698809909
  0.4996794650575124  0.0789557222334371  0.5636546671733867
  0.5991173864834398  0.8289026485566765  0.5639373786678307
  0.5991166607871091  0.3288982916439346  0.5639388919197641
  0.6324114087945011  0.5785111121860322  0.5639243790695589
  0.6324103876934128  0.0785071479169789  0.5639257935249382
  0.6979125325775341  0.9183755436598334  0.4364228002023463
  0.6979119188039364  0.4183790380775140  0.4364215311583065
  0.4996512115544711  0.9213085330981522  0.4362816810512653
  0.4996531608152476  0.4212539764204365  0.4363638090916486
  0.5328367461751916  0.6713507752134368  0.4362061179202292
  0.5328407601680976  0.1713669217225337  0.4362184491289325
  0.6323868650520195  0.9216418411078440  0.4360738226953805
  0.6323855766868891  0.4216456548332709  0.4360747749036398
  0.6654811050408216  0.6721587972597451  0.4361700772563312
  0.6654816461798532  0.1721580413424729  0.4361702881764312
  0.5659758753168892  0.9215697558360690  0.4361132396530231
  0.5659750015626364  0.4215626411639952  0.4361244170250785
  0.5990875774733861  0.6712773866752896  0.4360640693489812
  0.5990900459406444  0.1712769909388923  0.4360643866918031
  0.7236410723682333  0.9788843107334689  0.4367615046683044
  0.7236407075508772  0.4788854966249600  0.4367596869715932
  0.7236344042278897  0.8025842714593866  0.5631216956700044
  0.7236331328768896  0.3025840918991383  0.5631346981911298
  0.7236075662193459  0.6975482655477840  0.4368787092367211
  0.7236073184761217  0.1975487858047722  0.4368786189524576
  0.7236680934628565  0.0212575763915082  0.5632558867801062
  0.7236680996727282  0.5212574695983896  0.5632420176670989
  0.2757275077335350  0.0197432448054296  0.5702344369234282
  0.2753847830591841  0.5230071517405027  0.5664075360384686
  0.2761154871775192  0.1949302218202008  0.4241235698397304
  0.2756036937466114  0.6975741012944221  0.4384293669079464
  0.2759472514118227  0.3023390518242252  0.5761409289524917
  0.2755984859365382  0.8030393986327611  0.5629874487971172
  0.2755430237402606  0.9780809927833655  0.4380203719221902
  0.2759874375771655  0.4809295558487829  0.4247444932813387
  0.2687993525229974  0.3199530951264064  0.4989679505075180

             NaN             NaN             NaN
             NaN             NaN             NaN
             NaN             NaN             NaN
             NaN             NaN             NaN
             NaN             NaN             NaN
             NaN             NaN             NaN
             NaN             NaN             NaN
             NaN             NaN             NaN
             NaN             NaN             NaN
             NaN             NaN             NaN
             NaN             NaN             NaN
             NaN             NaN             NaN
             NaN             NaN             NaN
             NaN             NaN             NaN
             NaN             NaN             NaN
             NaN             NaN             NaN
             NaN             NaN             NaN
             NaN             NaN             NaN
             NaN             NaN             NaN
             NaN             NaN             NaN
             NaN             NaN             NaN
             NaN             NaN             NaN
             NaN             NaN             NaN
             NaN             NaN             NaN
             NaN             NaN             NaN
             NaN             NaN             NaN
             NaN             NaN             NaN
             NaN             NaN             NaN
             NaN             NaN             NaN
             NaN             NaN             NaN
             NaN             NaN             NaN
             NaN             NaN             NaN
             NaN             NaN             NaN
             NaN             NaN             NaN
             NaN             NaN             NaN
             NaN             NaN             NaN
             NaN             NaN             NaN
             NaN             NaN             NaN
             NaN             NaN             NaN
             NaN             NaN             NaN
             NaN             NaN             NaN
             NaN             NaN             NaN
             NaN             NaN             NaN
             NaN             NaN             NaN
             NaN             NaN             NaN
             NaN             NaN             NaN
             NaN             NaN             NaN
             NaN             NaN             NaN
             NaN             NaN             NaN
             NaN             NaN             NaN
             NaN             NaN             NaN
             NaN             NaN             NaN
             NaN             NaN             NaN
             NaN             NaN             NaN
             NaN             NaN             NaN
             NaN             NaN             NaN
             NaN             NaN             NaN
             NaN             NaN             NaN
             NaN             NaN             NaN
             NaN             NaN             NaN
             NaN             NaN             NaN
             NaN             NaN             NaN
             NaN             NaN             NaN
             NaN             NaN             NaN
             NaN             NaN             NaN
             NaN             NaN             NaN
             NaN             NaN             NaN
             NaN             NaN             NaN
             NaN             NaN             NaN
             NaN             NaN             NaN
             NaN             NaN             NaN
             NaN             NaN             NaN
             NaN             NaN             NaN
             NaN             NaN             NaN
             NaN             NaN             NaN
             NaN             NaN             NaN
             NaN             NaN             NaN
             NaN             NaN             NaN
             NaN             NaN             NaN
             NaN             NaN             NaN
             NaN             NaN             NaN
             NaN             NaN             NaN
             NaN             NaN             NaN
             NaN             NaN             NaN
             NaN             NaN             NaN
             NaN             NaN             NaN
             NaN             NaN             NaN
             NaN             NaN             NaN
             NaN             NaN             NaN
             NaN             NaN             NaN
             NaN             NaN             NaN
             NaN             NaN             NaN
             NaN             NaN             NaN
             NaN             NaN             NaN
             NaN             NaN             NaN
             NaN             NaN             NaN
             NaN             NaN             NaN
             NaN             NaN             NaN
             NaN             NaN             NaN
             NaN             NaN             NaN
             NaN             NaN             NaN
             NaN             NaN             NaN
             NaN             NaN             NaN
             NaN             NaN             NaN
             NaN             NaN             NaN
             NaN             NaN             NaN
             NaN             NaN             NaN
             NaN             NaN             NaN
             NaN             NaN             NaN
             NaN             NaN             NaN
             NaN             NaN             NaN
             NaN             NaN             NaN
             NaN             NaN             NaN
             NaN             NaN             NaN
             NaN             NaN             NaN
             NaN             NaN             NaN
             NaN             NaN             NaN
             NaN             NaN             NaN
             NaN             NaN             NaN
             NaN             NaN             NaN
             NaN             NaN             NaN
