C    H    Li                            
   1.0000000000000000     
    37.2234382628999967    0.0000000000000000    0.0000000000000000
     0.0000000000000000    8.5469398498999993    0.0000000000000000
     0.0000000000000000    0.0000000000000000   27.8030738831000015
   C    H    Li
   104    16     1
Direct
  0.4663852584073531  0.0048861777653369  0.4365070163781560
  0.4663959501830803  0.5048280191366560  0.4366345491567199
  0.4332407605591617  0.2549183445182149  0.4367632866176842
  0.4332097787209625  0.7548159967238327  0.4364395683984813
  0.3336227879024735  0.0041220265778403  0.4355658404536623
  0.3336748894683716  0.5052859488531904  0.4334385543263895
  0.3013337300072087  0.2572000824373399  0.4279308164533275
  0.3012078451963518  0.7582651476326643  0.4368934650586421
  0.4001123273943577  0.0050253992543900  0.4364039919872496
  0.4001196797386327  0.5051032985814566  0.4365125387131233
  0.3668939676922832  0.2547984819742373  0.4354715866063544
  0.3668523581773314  0.7549317106848343  0.4360984977678820
  0.4663311840492703  0.9948366352486857  0.5633234645811990
  0.4663284765769509  0.4948207172434257  0.5634758034487469
  0.4331770051091367  0.2447031881795683  0.5632671655850715
  0.4331265759697137  0.7447741599513249  0.5633285105379749
  0.3335126061499527  0.9942460125116180  0.5647604222491872
  0.3335507205431600  0.4946747192279694  0.5656308506071243
  0.3012368287773767  0.2400596247945592  0.5717776132031069
  0.3010764844467101  0.7413009391241028  0.5629856252140399
  0.4000319170968017  0.9944780829181655  0.5631320570540636
  0.4000408813477217  0.4945105381178965  0.5636670090043548
  0.3669008090863574  0.2442156186000243  0.5647519089704718
  0.3667531319604851  0.7443758892130556  0.5632786144235893
  0.4663862712982429  0.1716509126966640  0.4366171446787135
  0.4663780899942734  0.6715938781748334  0.4364903295603657
  0.4332376779616194  0.4215889181413873  0.4367596653479485
  0.4332003669785521  0.9216943592921009  0.4364511467523289
  0.3336511026638345  0.1714873778646255  0.4336880920859270
  0.3336442578856880  0.6726021913386868  0.4353816378609268
  0.3013131637502492  0.4193505666565709  0.4276075928720602
  0.3011795877761617  0.9184609189385330  0.4369232277971836
  0.4001051848209830  0.1715619070833875  0.4365264798097773
  0.4001096042070060  0.6716103545725400  0.4363153201668634
  0.3668880985952562  0.4218495393777637  0.4353982713790592
  0.3668332302303028  0.9217430695823507  0.4361645188624592
  0.3012138124336041  0.0791964171787869  0.5692702760082933
  0.3009971596677350  0.5807531646329408  0.5646842211373286
  0.4663350411955003  0.3281214496215453  0.5633955915719141
  0.4663133017560686  0.8281384075687821  0.5634170533609926
  0.3667830010935952  0.0774920770736960  0.5640603570827952
  0.3668029554975090  0.5777139770682806  0.5638308180558848
  0.3337061940392407  0.3272008717343287  0.5676647490833331
  0.3334814804274006  0.8269197746644082  0.5633750377283868
  0.4331453822841784  0.0779839638781136  0.5631810145311815
  0.4331388650639915  0.5779832730961724  0.5634499609510988
  0.4000668208743188  0.3278559137842147  0.5636678126281491
  0.4000103954876295  0.8278077706677365  0.5631690104067153
  0.5326526342264410  0.9949241315040331  0.5637091338065187
  0.5326500637107042  0.4949281726589617  0.5637383951870617
  0.5657872809831596  0.7450279308283533  0.5638205630821821
  0.5657934626038372  0.2450248783685121  0.5638105821274340
  0.6653041346327391  0.9953973215306720  0.5637796996025022
  0.6653030536216665  0.4954010676884051  0.5637759155134113
  0.6977070421307459  0.7415876687069997  0.5634878773050600
  0.6977070278169105  0.2415868191403718  0.5634952011147489
  0.4994656174215748  0.7448709367240952  0.5635813539655417
  0.4994859551990460  0.2448568833945121  0.5635082939746896
  0.5989034017667588  0.9946439970514759  0.5638758054509100
  0.5989014016076338  0.4946535781882007  0.5638782252803409
  0.6321911272898094  0.7449926989269662  0.5639068649679069
  0.6321920316915574  0.2449928667641559  0.5639078200378109
  0.5327031676662017  0.0049585200930453  0.4362731741208841
  0.5327123625637822  0.5049444161798624  0.4363018171885628
  0.5658316100810503  0.7548846787460206  0.4361910968436102
  0.5658366707455305  0.2548877182592603  0.4362013202899260
  0.6653337749063798  0.0046042979606801  0.4362278937652447
  0.6653356821537335  0.5046068634081977  0.4362283029814967
  0.6977376730924797  0.7584394505582523  0.4365192458082792
  0.6977384128601334  0.2584372048092781  0.4365188209489461
  0.4995254267160898  0.7549401989659759  0.4363978198725711
  0.4995414783329861  0.2549868611960497  0.4365037503431026
  0.5989396752762567  0.0053312921267383  0.4361266645379636
  0.5989442287753198  0.5053345855205797  0.4361335483465403
  0.6322297380057705  0.7550183901492221  0.4360977268082980
  0.6322308313524575  0.2550148623608098  0.4360976824092160
  0.5326472907302957  0.8282258296039503  0.5637272604568684
  0.5326563971248183  0.3282224424506685  0.5637169963621165
  0.5657885492341131  0.5780967911042255  0.5638411665408568
  0.5657889849455869  0.0780898339423297  0.5638254341879319
  0.6652910813842455  0.8275925442098120  0.5637987873570858
  0.6652910781900264  0.3275920728332620  0.5637994697929719
  0.6977301641375558  0.5813824772312203  0.5635433082351378
  0.6977309693758816  0.0813803364357316  0.5635527523398332
  0.4994742035902768  0.5782191789653288  0.5636215169372765
  0.4994773975493152  0.0782338472941049  0.5635227049772227
  0.5989017140646051  0.8284165938114750  0.5639054273464728
  0.5989037565465840  0.3284161401866252  0.5639055934900046
  0.6321967884687121  0.5780829036509145  0.5638961496991285
  0.6321971937448058  0.0780784646625938  0.5638975860200813
  0.6977584944463764  0.9186499005818237  0.4364634378569207
  0.6977594766416813  0.4186531770636495  0.4364620679248229
  0.4995248431864545  0.9215822285955225  0.4363671752614114
  0.4995434250740156  0.4215335525911130  0.4364803603002191
  0.5327036013079895  0.6716467063619994  0.4362824605057320
  0.5327122687867136  0.1716563535191215  0.4362991003657795
  0.6322340149932907  0.9219196003075436  0.4361062312697749
  0.6322352540938707  0.4219231899976685  0.4361085756099492
  0.6653244914075589  0.6724440778069632  0.4362071709399492
  0.6653260298953972  0.1724421288615725  0.4362068903254646
  0.5658311536949038  0.9218627510818268  0.4361686439045209
  0.5658367162626144  0.4218553742669643  0.4361856063392163
  0.5989410146048836  0.6715545362013526  0.4361011985396598
  0.5989452724170382  0.1715504543499642  0.4360994573837646
  0.7234845214027390  0.9791554158987879  0.4368102402367708
  0.7234858815211540  0.4791556916682218  0.4368077039604500
  0.7234183337809249  0.8022154463431729  0.5630783562086036
  0.7234183017974922  0.3022150881535818  0.5630902459647006
  0.7234493056101815  0.6978226076592008  0.4369366952194832
  0.7234504000992885  0.1978229270805612  0.4369364612021806
  0.7234602812067008  0.0208934228027268  0.5632195414864557
  0.7234592032969294  0.5208931070770064  0.5632033330996589
  0.2756503132887292  0.0183149936210396  0.5725647144213044
  0.2749853603900870  0.5218471749211530  0.5672354326567582
  0.2761215887589385  0.1957414988120546  0.4214912572911116
  0.2755020151303644  0.6975928538012182  0.4385552145419394
  0.2758736389027698  0.2995772639623278  0.5795779222679911
  0.2753696536704713  0.8018875189487316  0.5620084232049803
  0.2754608079161782  0.9789998715055018  0.4385688396191059
  0.2761012955455229  0.4805805290058118  0.4208850279151968
  0.2961891717239414  0.3541693822665761  0.5033086427403853

             NaN             NaN             NaN
             NaN             NaN             NaN
             NaN             NaN             NaN
             NaN             NaN             NaN
             NaN             NaN             NaN
             NaN             NaN             NaN
             NaN             NaN             NaN
             NaN             NaN             NaN
             NaN             NaN             NaN
             NaN             NaN             NaN
             NaN             NaN             NaN
             NaN             NaN             NaN
             NaN             NaN             NaN
             NaN             NaN             NaN
             NaN             NaN             NaN
             NaN             NaN             NaN
             NaN             NaN             NaN
             NaN             NaN             NaN
             NaN             NaN             NaN
             NaN             NaN             NaN
             NaN             NaN             NaN
             NaN             NaN             NaN
             NaN             NaN             NaN
             NaN             NaN             NaN
             NaN             NaN             NaN
             NaN             NaN             NaN
             NaN             NaN             NaN
             NaN             NaN             NaN
             NaN             NaN             NaN
             NaN             NaN             NaN
             NaN             NaN             NaN
             NaN             NaN             NaN
             NaN             NaN             NaN
             NaN             NaN             NaN
             NaN             NaN             NaN
             NaN             NaN             NaN
             NaN             NaN             NaN
             NaN             NaN             NaN
             NaN             NaN             NaN
             NaN             NaN             NaN
             NaN             NaN             NaN
             NaN             NaN             NaN
             NaN             NaN             NaN
             NaN             NaN             NaN
             NaN             NaN             NaN
             NaN             NaN             NaN
             NaN             NaN             NaN
             NaN             NaN             NaN
             NaN             NaN             NaN
             NaN             NaN             NaN
             NaN             NaN             NaN
             NaN             NaN             NaN
             NaN             NaN             NaN
             NaN             NaN             NaN
             NaN             NaN             NaN
             NaN             NaN             NaN
             NaN             NaN             NaN
             NaN             NaN             NaN
             NaN             NaN             NaN
             NaN             NaN             NaN
             NaN             NaN             NaN
             NaN             NaN             NaN
             NaN             NaN             NaN
             NaN             NaN             NaN
             NaN             NaN             NaN
             NaN             NaN             NaN
             NaN             NaN             NaN
             NaN             NaN             NaN
             NaN             NaN             NaN
             NaN             NaN             NaN
             NaN             NaN             NaN
             NaN             NaN             NaN
             NaN             NaN             NaN
             NaN             NaN             NaN
             NaN             NaN             NaN
             NaN             NaN             NaN
             NaN             NaN             NaN
             NaN             NaN             NaN
             NaN             NaN             NaN
             NaN             NaN             NaN
             NaN             NaN             NaN
             NaN             NaN             NaN
             NaN             NaN             NaN
             NaN             NaN             NaN
             NaN             NaN             NaN
             NaN             NaN             NaN
             NaN             NaN             NaN
             NaN             NaN             NaN
             NaN             NaN             NaN
             NaN             NaN             NaN
             NaN             NaN             NaN
             NaN             NaN             NaN
             NaN             NaN             NaN
             NaN             NaN             NaN
             NaN             NaN             NaN
             NaN             NaN             NaN
             NaN             NaN             NaN
             NaN             NaN             NaN
             NaN             NaN             NaN
             NaN             NaN             NaN
             NaN             NaN             NaN
             NaN             NaN             NaN
             NaN             NaN             NaN
             NaN             NaN             NaN
             NaN             NaN             NaN
             NaN             NaN             NaN
             NaN             NaN             NaN
             NaN             NaN             NaN
             NaN             NaN             NaN
             NaN             NaN             NaN
             NaN             NaN             NaN
             NaN             NaN             NaN
             NaN             NaN             NaN
             NaN             NaN             NaN
             NaN             NaN             NaN
             NaN             NaN             NaN
             NaN             NaN             NaN
             NaN             NaN             NaN
             NaN             NaN             NaN
             NaN             NaN             NaN
             NaN             NaN             NaN
