C    H    Li                            
   1.0000000000000000     
    37.0938796996999969    0.0000000000000000    0.0000000000000000
     0.0000000000000000    7.3546423911999996    0.0000000000000000
     0.0000000000000000    0.0000000000000000   27.8030738831000015
   C    H    Li
   108    12     1
Direct
  0.4996205443529610  0.8333521154623577  0.4366413841615916
  0.7306498373422065  0.8333015227842694  0.5633271519216508
  0.3842188386145696  0.8333579844108193  0.4362756290747358
  0.6150604463133327  0.8333600501968601  0.4368705676070384
  0.4419177916782575  0.6666869195575786  0.4364791568369923
  0.6728352937920735  0.6666924513491000  0.4366494703808305
  0.3265357101137773  0.6666991627963547  0.4362178479756457
  0.5573321652281309  0.6666871244425330  0.4367870804255958
  0.4996206124535706  0.1666855736784079  0.4366414440409791
  0.7306495027194518  0.1666335449474759  0.5633267504658158
  0.3842189213809938  0.1666917408212966  0.4362760228005274
  0.6150604824995649  0.1666935487398337  0.4368706099630578
  0.4419177985594746  0.0000201969586565  0.4364775552282973
  0.6728351952817133  0.0000249432052598  0.4366482357106455
  0.3265359779833422  0.0000339130057151  0.4362168166815966
  0.5573321568043138  0.0000203083371998  0.4367855956175276
  0.4996206229821614  0.5000187732240166  0.4366430077926358
  0.7306498958693107  0.4999672822506485  0.5633273549438251
  0.3842188318481000  0.5000246065439448  0.4362774830488674
  0.6150604952070400  0.5000267783336644  0.4368718728034511
  0.4419177567158107  0.3333536408038995  0.4364793737895989
  0.6728353939724908  0.3333589394029450  0.4366495061331729
  0.3265355952207378  0.3333664572323960  0.4362186117914385
  0.5573321098679783  0.3333536894704511  0.4367871300071614
  0.2692116703316952  0.8333744856559996  0.4366434681264528
  0.5002386024209968  0.8332860648487603  0.5632516737098194
  0.3847956222951293  0.8332940008579011  0.5631560729018655
  0.6156390064222541  0.8333028360120409  0.5636436181092036
  0.4425253210798838  0.6666219943138806  0.5631206875853054
  0.6733248753979866  0.6666371869851587  0.5637409589236417
  0.3270229403507050  0.6666362835131213  0.5634597481623971
  0.5579421349239476  0.6666318240087817  0.5634359242652044
  0.2692104761131421  0.1667061839704493  0.4366456037568926
  0.5002384474688725  0.1666198473833514  0.5632516802240095
  0.3847955866854489  0.1666272852131778  0.5631558919048584
  0.6156388612566706  0.1666367133540355  0.5636436174780199
  0.4425254221293348  0.9999551568595343  0.5631226943041578
  0.6733245551583834  0.9999704564941273  0.5637413264234862
  0.3270230605915928  0.9999674335860717  0.5634610233696115
  0.5579421296569939  0.9999652559925080  0.5634371580227874
  0.2692101985096729  0.5000405098556863  0.4366460441170361
  0.5002384406774275  0.4999526293049179  0.5632502574145665
  0.3847954476571703  0.4999608757252659  0.5631540354005137
  0.6156389514307560  0.4999695880647887  0.5636428309492639
  0.4425253795136669  0.3332888964411240  0.5631205925928013
  0.6733250853868824  0.3333039453708324  0.5637409164351109
  0.3270228249853692  0.3333019891901903  0.5634588172975818
  0.5579424262194134  0.3332986526086306  0.5634358751915027
  0.4611510173985784  0.8333528277834090  0.4365286809182068
  0.6919696559612356  0.8333585509292307  0.4364959110730398
  0.3456631402946012  0.8333638137106828  0.4361910426888085
  0.5765657095092525  0.8333545093441571  0.4368287926960643
  0.4034285265152613  0.6666898767829541  0.4363297695404676
  0.6342719607289093  0.6666952922805409  0.4368282471130884
  0.2876589357490477  0.6667054230125619  0.4364199509795660
  0.5188595791142190  0.6666854947404565  0.4366767352625212
  0.4611509751526792  0.1666863145863702  0.4365288281553139
  0.6919693283882113  0.1666915233931082  0.4364958425328121
  0.3456632795276465  0.1666981236456715  0.4361916782142888
  0.5765656495362143  0.1666879467128599  0.4368288082632820
  0.4034285411459254  0.0000233516686400  0.4363281826371838
  0.6342718942028239  0.0000284511557477  0.4368270367394014
  0.2876593536459520  0.0000396973615719  0.4364192546194411
  0.5188595633618179  0.0000188633821994  0.4366751493276254
  0.4611509870576804  0.5000194955513774  0.4365303959134779
  0.6919695402182203  0.5000257776536328  0.4364971954427255
  0.3456631450733442  0.5000303057418860  0.4361928104061126
  0.5765656625381317  0.5000212018882303  0.4368301795805581
  0.4034286129505566  0.3333568132495221  0.4363300702241121
  0.6342720556336233  0.3333620702464843  0.4368282438761981
  0.2876581095209335  0.3333725837941022  0.4364213075138877
  0.5188597247770829  0.3333522052618111  0.4366767370834643
  0.4810011319558818  0.9999538586019630  0.5632137871591553
  0.7121982737768222  0.9999684127683409  0.5635562710438043
  0.3655841271691115  0.9999625307359820  0.5632360790662900
  0.5964297140157783  0.9999689626506899  0.5635853733510685
  0.4232920809098820  0.8332898777057910  0.5631173976661580
  0.6541974033936595  0.8333036134764357  0.5637545676895260
  0.3078895861463049  0.8333027278859092  0.5636342354723383
  0.5387097622415239  0.8332965962826291  0.5633858972142207
  0.4810006718484360  0.3332872932448354  0.5632122434610080
  0.7121983636489788  0.3333017900558565  0.5635561362256656
  0.3655839899570315  0.3332962604911941  0.5632341975519073
  0.5964293517317771  0.3333023720105163  0.5635843574426902
  0.4232921705038780  0.1666231335170994  0.5631173504531467
  0.6541975015842059  0.1666375356631578  0.5637545449960429
  0.3078905256027619  0.1666352608835035  0.5636326410985339
  0.5387099017841009  0.1666301916410509  0.5633858917585584
  0.4810010618974694  0.6666204198986502  0.5632122016885924
  0.7121987440492944  0.6666353541663163  0.5635562906376167
  0.3655840220372839  0.6666300832677141  0.5632344237126564
  0.5964297132897802  0.6666354893450128  0.5635843387402359
  0.4232920808601948  0.4999567548848444  0.5631151729739208
  0.6541976433768351  0.4999704152410192  0.5637540965868368
  0.3078903251173628  0.4999701775285706  0.5636314079658056
  0.5387098862330535  0.4999631600375500  0.5633846305261161
  0.2690097662619599  0.8333057916673697  0.5639695555397618
  0.2690113705641317  0.4999744310915793  0.5639660160680363
  0.2690116944269593  0.1666369950353135  0.5639667581000746
  0.7308493599596100  0.8333569040503049  0.4362104929331947
  0.7308489002371048  0.5000240715562351  0.4362114560360168
  0.7308485760153011  0.1666896346410624  0.4362103094261061
  0.2505520480425353  0.6666374558115751  0.5641251950991288
  0.2505547904213292  0.3333056051672237  0.5641210889957701
  0.2505522587706455  0.9999754671441071  0.5641256442905865
  0.7493110337902631  0.0000239138208873  0.4360838509235188
  0.7493102860419431  0.3333561083603854  0.4360842430362004
  0.7493112645964518  0.6666897979330226  0.4360845976125962
  0.2397450878388975  0.8333760373621615  0.4372131108754349
  0.2397420794835242  0.5000365888553633  0.4372190939286934
  0.2397423982767114  0.1667009362910142  0.4372189647146196
  0.7601146070357400  0.8333043407738562  0.5627577357697087
  0.7601146716589757  0.4999653409099521  0.5627584253873288
  0.7601142514534848  0.1666296695662410  0.5627575902555670
  0.2210717556281892  0.6666249890826699  0.5643660366453427
  0.2210727603993071  0.3333019776646404  0.5643550718869708
  0.2210719741444706  0.9999893373721412  0.5643656266300370
  0.7787873594479765  0.0000269105463844  0.4359032405189464
  0.7787860598301184  0.3333543302787227  0.4359023822016407
  0.7787875981265034  0.6666914877571919  0.4359028603743584
  0.0982520040596661  0.3328680296076704  0.5003166094358553

             NaN             NaN             NaN
             NaN             NaN             NaN
             NaN             NaN             NaN
             NaN             NaN             NaN
             NaN             NaN             NaN
             NaN             NaN             NaN
             NaN             NaN             NaN
             NaN             NaN             NaN
             NaN             NaN             NaN
             NaN             NaN             NaN
             NaN             NaN             NaN
             NaN             NaN             NaN
             NaN             NaN             NaN
             NaN             NaN             NaN
             NaN             NaN             NaN
             NaN             NaN             NaN
             NaN             NaN             NaN
             NaN             NaN             NaN
             NaN             NaN             NaN
             NaN             NaN             NaN
             NaN             NaN             NaN
             NaN             NaN             NaN
             NaN             NaN             NaN
             NaN             NaN             NaN
             NaN             NaN             NaN
             NaN             NaN             NaN
             NaN             NaN             NaN
             NaN             NaN             NaN
             NaN             NaN             NaN
             NaN             NaN             NaN
             NaN             NaN             NaN
             NaN             NaN             NaN
             NaN             NaN             NaN
             NaN             NaN             NaN
             NaN             NaN             NaN
             NaN             NaN             NaN
             NaN             NaN             NaN
             NaN             NaN             NaN
             NaN             NaN             NaN
             NaN             NaN             NaN
             NaN             NaN             NaN
             NaN             NaN             NaN
             NaN             NaN             NaN
             NaN             NaN             NaN
             NaN             NaN             NaN
             NaN             NaN             NaN
             NaN             NaN             NaN
             NaN             NaN             NaN
             NaN             NaN             NaN
             NaN             NaN             NaN
             NaN             NaN             NaN
             NaN             NaN             NaN
             NaN             NaN             NaN
             NaN             NaN             NaN
             NaN             NaN             NaN
             NaN             NaN             NaN
             NaN             NaN             NaN
             NaN             NaN             NaN
             NaN             NaN             NaN
             NaN             NaN             NaN
             NaN             NaN             NaN
             NaN             NaN             NaN
             NaN             NaN             NaN
             NaN             NaN             NaN
             NaN             NaN             NaN
             NaN             NaN             NaN
             NaN             NaN             NaN
             NaN             NaN             NaN
             NaN             NaN             NaN
             NaN             NaN             NaN
             NaN             NaN             NaN
             NaN             NaN             NaN
             NaN             NaN             NaN
             NaN             NaN             NaN
             NaN             NaN             NaN
             NaN             NaN             NaN
             NaN             NaN             NaN
             NaN             NaN             NaN
             NaN             NaN             NaN
             NaN             NaN             NaN
             NaN             NaN             NaN
             NaN             NaN             NaN
             NaN             NaN             NaN
             NaN             NaN             NaN
             NaN             NaN             NaN
             NaN             NaN             NaN
             NaN             NaN             NaN
             NaN             NaN             NaN
             NaN             NaN             NaN
             NaN             NaN             NaN
             NaN             NaN             NaN
             NaN             NaN             NaN
             NaN             NaN             NaN
             NaN             NaN             NaN
             NaN             NaN             NaN
             NaN             NaN             NaN
             NaN             NaN             NaN
             NaN             NaN             NaN
             NaN             NaN             NaN
             NaN             NaN             NaN
             NaN             NaN             NaN
             NaN             NaN             NaN
             NaN             NaN             NaN
             NaN             NaN             NaN
             NaN             NaN             NaN
             NaN             NaN             NaN
             NaN             NaN             NaN
             NaN             NaN             NaN
             NaN             NaN             NaN
             NaN             NaN             NaN
             NaN             NaN             NaN
             NaN             NaN             NaN
             NaN             NaN             NaN
             NaN             NaN             NaN
             NaN             NaN             NaN
             NaN             NaN             NaN
             NaN             NaN             NaN
             NaN             NaN             NaN
             NaN             NaN             NaN
             NaN             NaN             NaN
             NaN             NaN             NaN
