C    H    Li                            
   1.0000000000000000     
    37.0938796996999969    0.0000000000000000    0.0000000000000000
     0.0000000000000000    7.3546423911999996    0.0000000000000000
     0.0000000000000000    0.0000000000000000   27.8030738831000015
   C    H    Li
   108    12     1
Direct
  0.4996027644484583  0.8333569482592036  0.4366367140650146
  0.7306219281174992  0.8333057446341827  0.5632852087627581
  0.3841933374177721  0.8333510698013388  0.4362807881548975
  0.6150479932930983  0.8333527875921123  0.4369231223248314
  0.4418960215425562  0.6666853650009230  0.4364665902104712
  0.6728245834984863  0.6666864602249744  0.4366940558029686
  0.3265061502453487  0.6666853814830096  0.4362661784216026
  0.5573178429451577  0.6666868594257533  0.4368155598294941
  0.4996027744376421  0.1666902736828259  0.4366367298727312
  0.7306218809200495  0.1666391616667634  0.5632851111703276
  0.3841935464088772  0.1666843617642710  0.4362814737868652
  0.6150480010521107  0.1666861188461689  0.4369230936667562
  0.4418960154758406  0.0000182855146851  0.4364664994651406
  0.6728245853665956  0.0000192542397828  0.4366939634157229
  0.3265060000941322  0.0000206258420080  0.4362660379114898
  0.5573178286177916  0.0000200402592351  0.4368154461261486
  0.4996027899616828  0.5000236602642747  0.4366370620622392
  0.7306218854187293  0.4999723157110548  0.5632852554379209
  0.3841935772079461  0.5000176375922931  0.4362815148938395
  0.6150480041010919  0.5000194294430176  0.4369231770076960
  0.4418960368563916  0.3333518404463717  0.4364667865866396
  0.6728246374947059  0.3333528550571359  0.4366940205952220
  0.3265068777278966  0.3333531236741619  0.4362700190904469
  0.5573177857959321  0.3333534470973494  0.4368155837257472
  0.2691796684414448  0.8333591748865915  0.4367386967381068
  0.5001986466471051  0.8333012481993799  0.5632396731813700
  0.3847452332861670  0.8333051898460614  0.5630789591272520
  0.6156070373091190  0.8333002670280226  0.5636496124806998
  0.4424797378682516  0.6666342275005660  0.5630768333502966
  0.6732959416858827  0.6666345226509405  0.5637329611144630
  0.3269637768428818  0.6666489333460598  0.5633489809080459
  0.5579057413285553  0.6666358878755366  0.5634453090833239
  0.2691818196941849  0.1666936574786320  0.4367440174978509
  0.5001984978478383  0.1666347045409862  0.5632393792654813
  0.3847445415736325  0.1666362658686575  0.5630778501762477
  0.6156069914539474  0.1666336603247019  0.5636495343104236
  0.4424797390667617  0.9999674566023072  0.5630770020865812
  0.6732959387718883  0.9999679463319988  0.5637329334592693
  0.3269637487273220  0.9999643711176055  0.5633494235807440
  0.5579057497748928  0.9999694402763960  0.5634453363051812
  0.2691818636830457  0.5000263127817143  0.4367445810229059
  0.5001984904064515  0.4999676832948783  0.5632393124289151
  0.3847445345562770  0.4999739529173641  0.5630775488487845
  0.6156069899109626  0.4999668848116264  0.5636495353416635
  0.4424794429782943  0.3333007975004105  0.5630764568005466
  0.6732960698282694  0.3333012387318701  0.5637328878322589
  0.3269645638576122  0.3333064788393079  0.5633475825188857
  0.5579058860426931  0.3333026460420778  0.5634451736734409
  0.4611301203749823  0.8333524939324987  0.4365167861807777
  0.6919605969657044  0.8333529576694643  0.4365375927492207
  0.3456352073307699  0.8333523336309653  0.4362225032034138
  0.5765518390218434  0.8333532206957530  0.4368688401510185
  0.4034045832610569  0.6666847240810659  0.4363253752720810
  0.6342610776061534  0.6666861864056632  0.4368783358775581
  0.2876268370043953  0.6666966715163548  0.4365039897098898
  0.5188421445205869  0.6666894436246011  0.4366813283580622
  0.4611300893529151  0.1666857643437957  0.4365168894181602
  0.6919604139016292  0.1666860386893300  0.4365375147781801
  0.3456356490072333  0.1666850268796517  0.4362243800906768
  0.5765517886326762  0.1666865335721405  0.4368688381429714
  0.4034045779356141  0.0000173367923827  0.4363253368846278
  0.6342610789373788  0.0000193604630875  0.4368782518464366
  0.2876264907202601  0.0000198384088171  0.4365034715986313
  0.5188421280385731  0.0000226861175115  0.4366810775410455
  0.4611301011187990  0.5000192217027188  0.4365170887879763
  0.6919604136357698  0.5000198754566137  0.4365376112949673
  0.3456357168587446  0.5000192754290818  0.4362244384216524
  0.5765517936775891  0.5000198204035388  0.4368689348566001
  0.4034046578064899  0.3333509986590957  0.4363259406648795
  0.6342611236016722  0.3333527531881155  0.4368782731501686
  0.2876262222218271  0.3333588461536017  0.4365099512578615
  0.5188421891406660  0.3333560319425158  0.4366813388710133
  0.4809596128193173  0.9999669143309357  0.5631901874546882
  0.7121703922843505  0.9999721231093931  0.5635269467989216
  0.3655299048887863  0.9999691050672932  0.5631448423349763
  0.5963968299493106  0.9999680512069913  0.5635931770800434
  0.4232438324808884  0.8333022112719275  0.5630610915465523
  0.6541678568338767  0.8333015075029571  0.5637536557424649
  0.3078281882798893  0.8333069859771789  0.5635305763288158
  0.5386735105059249  0.8333019690875300  0.5633895185465175
  0.4809591437978682  0.3333001399920783  0.5631898311663548
  0.7121702380307134  0.3333054094634886  0.5635269381283906
  0.3655298124955454  0.3333056225267643  0.5631442080538902
  0.5963966366275761  0.3333013201880949  0.5635930950593289
  0.4232432942134753  0.1666346112825320  0.5630603864234864
  0.6541678820270731  0.1666349063133286  0.5637535887193476
  0.3078341215100787  0.1666328567423257  0.5635214831194303
  0.5386734829235562  0.1666354115791797  0.5633893415395194
  0.4809596134493206  0.6666333313203535  0.5631900949040609
  0.7121703958373011  0.6666386889818331  0.5635270243992776
  0.3655299289285409  0.6666423130793201  0.5631445057939036
  0.5963968205588949  0.6666345278919865  0.5635931679667402
  0.4232432935857468  0.4999698321622719  0.5630601729624034
  0.6541678794998961  0.4999681517410916  0.5637536106655640
  0.3078341913485577  0.4999810379940404  0.5635208704692198
  0.5386734729102215  0.4999685654890428  0.5633893061178332
  0.2689433506311976  0.8333081355790624  0.5638835611495066
  0.2689514959268564  0.5000060029849070  0.5638907039271467
  0.2689514229520458  0.1666104419957882  0.5638909710878154
  0.7308400568848059  0.8333535820473352  0.4362389861103827
  0.7308396293987267  0.5000205616613180  0.4362388800386264
  0.7308396282519236  0.1666866067396399  0.4362387506391333
  0.2504897284555907  0.6666391877045439  0.5640574789291637
  0.2505161548047024  0.3333084763555570  0.5641092911933191
  0.2504897194695548  0.9999774912203415  0.5640577039089749
  0.7493030577452657  0.0000207633738138  0.4361054830008179
  0.7493025045450198  0.3333537526394794  0.4361051851190269
  0.7493030590835781  0.6666867444715437  0.4361056597479351
  0.2397110235966604  0.8333565641932820  0.4373300541070488
  0.2397033990768678  0.5000102867945566  0.4373380266642289
  0.2397033274734270  0.1667038508421231  0.4373377539468526
  0.7600864052420394  0.8333048483435405  0.5627034322741887
  0.7600863647409586  0.4999710148795154  0.5627036748850152
  0.7600863579832788  0.1666385995126556  0.5627033286872329
  0.2210015040847998  0.6665901116869394  0.5643173443159833
  0.2210044702695274  0.3333073320701966  0.5644915747160345
  0.2210014529456399  1.0000246667090595  0.5643177841134189
  0.7787788455479717  0.0000239334807120  0.4359054091117702
  0.7787779608547672  0.3333558131792685  0.4359048085133396
  0.7787788477984293  0.6666876941342572  0.4359057292280217
  0.1384515909877234  0.3328948087987836  0.5005436584735725

             NaN             NaN             NaN
             NaN             NaN             NaN
             NaN             NaN             NaN
             NaN             NaN             NaN
             NaN             NaN             NaN
             NaN             NaN             NaN
             NaN             NaN             NaN
             NaN             NaN             NaN
             NaN             NaN             NaN
             NaN             NaN             NaN
             NaN             NaN             NaN
             NaN             NaN             NaN
             NaN             NaN             NaN
             NaN             NaN             NaN
             NaN             NaN             NaN
             NaN             NaN             NaN
             NaN             NaN             NaN
             NaN             NaN             NaN
             NaN             NaN             NaN
             NaN             NaN             NaN
             NaN             NaN             NaN
             NaN             NaN             NaN
             NaN             NaN             NaN
             NaN             NaN             NaN
             NaN             NaN             NaN
             NaN             NaN             NaN
             NaN             NaN             NaN
             NaN             NaN             NaN
             NaN             NaN             NaN
             NaN             NaN             NaN
             NaN             NaN             NaN
             NaN             NaN             NaN
             NaN             NaN             NaN
             NaN             NaN             NaN
             NaN             NaN             NaN
             NaN             NaN             NaN
             NaN             NaN             NaN
             NaN             NaN             NaN
             NaN             NaN             NaN
             NaN             NaN             NaN
             NaN             NaN             NaN
             NaN             NaN             NaN
             NaN             NaN             NaN
             NaN             NaN             NaN
             NaN             NaN             NaN
             NaN             NaN             NaN
             NaN             NaN             NaN
             NaN             NaN             NaN
             NaN             NaN             NaN
             NaN             NaN             NaN
             NaN             NaN             NaN
             NaN             NaN             NaN
             NaN             NaN             NaN
             NaN             NaN             NaN
             NaN             NaN             NaN
             NaN             NaN             NaN
             NaN             NaN             NaN
             NaN             NaN             NaN
             NaN             NaN             NaN
             NaN             NaN             NaN
             NaN             NaN             NaN
             NaN             NaN             NaN
             NaN             NaN             NaN
             NaN             NaN             NaN
             NaN             NaN             NaN
             NaN             NaN             NaN
             NaN             NaN             NaN
             NaN             NaN             NaN
             NaN             NaN             NaN
             NaN             NaN             NaN
             NaN             NaN             NaN
             NaN             NaN             NaN
             NaN             NaN             NaN
             NaN             NaN             NaN
             NaN             NaN             NaN
             NaN             NaN             NaN
             NaN             NaN             NaN
             NaN             NaN             NaN
             NaN             NaN             NaN
             NaN             NaN             NaN
             NaN             NaN             NaN
             NaN             NaN             NaN
             NaN             NaN             NaN
             NaN             NaN             NaN
             NaN             NaN             NaN
             NaN             NaN             NaN
             NaN             NaN             NaN
             NaN             NaN             NaN
             NaN             NaN             NaN
             NaN             NaN             NaN
             NaN             NaN             NaN
             NaN             NaN             NaN
             NaN             NaN             NaN
             NaN             NaN             NaN
             NaN             NaN             NaN
             NaN             NaN             NaN
             NaN             NaN             NaN
             NaN             NaN             NaN
             NaN             NaN             NaN
             NaN             NaN             NaN
             NaN             NaN             NaN
             NaN             NaN             NaN
             NaN             NaN             NaN
             NaN             NaN             NaN
             NaN             NaN             NaN
             NaN             NaN             NaN
             NaN             NaN             NaN
             NaN             NaN             NaN
             NaN             NaN             NaN
             NaN             NaN             NaN
             NaN             NaN             NaN
             NaN             NaN             NaN
             NaN             NaN             NaN
             NaN             NaN             NaN
             NaN             NaN             NaN
             NaN             NaN             NaN
             NaN             NaN             NaN
             NaN             NaN             NaN
             NaN             NaN             NaN
             NaN             NaN             NaN
             NaN             NaN             NaN
