C    H    Li                            
   1.0000000000000000     
    37.2234382628999967    0.0000000000000000    0.0000000000000000
     0.0000000000000000    8.5469398498999993    0.0000000000000000
     0.0000000000000000    0.0000000000000000   27.8030738831000015
   C    H    Li
   104    16     1
Direct
  0.4665887733297753  0.0048569907131016  0.4364360648200011
  0.4665913588751101  0.5048342366621505  0.4365474252106091
  0.4334877910191740  0.2548002410235648  0.4367803448272612
  0.4334713291752271  0.7547791962638393  0.4364471664476997
  0.3339598284011391  0.0042396178489214  0.4358168983059177
  0.3340214524391932  0.5048106350266344  0.4347683261817389
  0.3018033966703941  0.2579378194169545  0.4301378926870404
  0.3015320850759272  0.7581980212972385  0.4372280593830130
  0.4003659992159644  0.0051872466491660  0.4364720435445258
  0.4003712231517699  0.5051875410876246  0.4367449739183336
  0.3671086240873159  0.2547878428448675  0.4360923895504436
  0.3670886916519171  0.7548476960943989  0.4363275695528525
  0.4666093013604260  0.9953390953334723  0.5634810440039372
  0.4666136824652580  0.4953287112754993  0.5635605023637378
  0.4335124671268928  0.2453924972652362  0.5633105088192736
  0.4334924639256550  0.7454132586515431  0.5634751980730316
  0.3339782219543298  0.9955896481777802  0.5643176036944045
  0.3340094835361472  0.4958033418699181  0.5650698826181875
  0.3018059839066048  0.2416473976596434  0.5691030259369090
  0.3015579376372050  0.7421153866932589  0.5636734373012384
  0.4003769524289296  0.9950111177924201  0.5632151287737442
  0.4003961214142722  0.4949896518959637  0.5636070856752724
  0.3671331547241937  0.2453894515016704  0.5640045141055325
  0.3670988386709449  0.7453449294880867  0.5635710208256821
  0.4665914348729104  0.1716522921122313  0.4365383209878052
  0.4665818676599738  0.6716319412469042  0.4364291765337270
  0.4334815274194330  0.4216877697560530  0.4367736821075458
  0.4334702685961350  0.9217215930557405  0.4364339480970703
  0.3340515724105875  0.1718036344109187  0.4345568158081538
  0.3339595894757862  0.6723690009949383  0.4359602213871349
  0.3017287538747933  0.4187950608802553  0.4303477759529516
  0.3015217856949191  0.9184101392699175  0.4370906642010122
  0.4003720693097332  0.1713994665831519  0.4367003028210069
  0.4003563947766173  0.6713970936251770  0.4364862447322365
  0.3670860958483474  0.4218187631385913  0.4361320691340070
  0.3670840224568847  0.9217352841533835  0.4362814398689437
  0.3016064714013486  0.0812170827786782  0.5675330703710456
  0.3016060524586290  0.5819435669150055  0.5647545720247384
  0.4666150444073520  0.3285342163609067  0.5635038783149611
  0.4666036230586620  0.8285452631387358  0.5635497114977277
  0.3670923003332955  0.0784117165867841  0.5636631216540969
  0.3671131646070676  0.5784302320156570  0.5639388215692877
  0.3340899899226422  0.3282460106823762  0.5658854489858033
  0.3339781169458836  0.8278937758679228  0.5637175583805126
  0.4334968198530766  0.0784802716454216  0.5632961003892264
  0.4335016727818966  0.5784726076171245  0.5635316391457371
  0.4004041090251682  0.3288221414914023  0.5634481195520776
  0.4003734407997819  0.8287882797586175  0.5633637065701999
  0.5329443970832186  0.9952493827093188  0.5638079010326174
  0.5329454411032122  0.4952502329688881  0.5638153297217806
  0.5660464703882049  0.7452920117985463  0.5639064537454568
  0.5660488670563076  0.2452893969744208  0.5639048274274930
  0.6655386470060699  0.9955324505735228  0.5638311030449366
  0.6655389926517130  0.4955339442832199  0.5638283869851010
  0.6979496810621549  0.7416786721326269  0.5635303957756682
  0.6979502633764968  0.2416765604424518  0.5635376874058107
  0.4997748289898560  0.7451192207095090  0.5636781805206080
  0.4997830446846823  0.2451081936136938  0.5636374122145734
  0.5991634935839008  0.9947822326043908  0.5639494254963894
  0.5991638881740718  0.4947848545867977  0.5639494012184834
  0.6324461859776288  0.7451370600808196  0.5639668471317799
  0.6324471029385235  0.2451370674311569  0.5639679465760010
  0.5329173191518832  0.0049234192493934  0.4361857383817724
  0.5329186323388989  0.5049204119879059  0.4362000250625664
  0.5660203879170471  0.7548722595017877  0.4360970396103831
  0.5660222944736126  0.2548724168909099  0.4361028050925842
  0.6655099887719674  0.0045993311126736  0.4361722615704324
  0.6655103765299376  0.5046009010709159  0.4361713830909112
  0.6979197662436823  0.7584557557260536  0.4364680947721833
  0.6979201833205289  0.2584568698563783  0.4364664656086266
  0.4997492322469484  0.7550500010586344  0.4363117550986387
  0.4997563275767976  0.2550601149058778  0.4363922552744581
  0.5991350485176590  0.0053609014264733  0.4360545820511075
  0.5991357534648433  0.5053631995123997  0.4360557367401752
  0.6324179030395308  0.7550046759038899  0.4360379984415151
  0.6324185677831989  0.2550037636450090  0.4360372310271067
  0.5329446594202468  0.8284821743780920  0.5638171916234638
  0.5329488168081939  0.3284779171641738  0.5638129071014540
  0.5660467613408231  0.5783103072931851  0.5639193510044008
  0.5660461027319738  0.0783076793646887  0.5639167751152228
  0.6655316341144161  0.8277008268826062  0.5638489283923978
  0.6655324674888771  0.3277012478988963  0.5638502396735124
  0.6979652242532981  0.5814996991835243  0.5635738588225713
  0.6979652523045874  0.0814972970366469  0.5635828163333756
  0.4997775301712638  0.5786970264330440  0.5637002775592458
  0.4997761003808065  0.0786974252128464  0.5636553471207645
  0.5991635159314739  0.8286502584061720  0.5639754166243065
  0.5991649134240142  0.3286506130711783  0.5639758433821236
  0.6324507840617238  0.5782107251701749  0.5639599443225188
  0.6324505057322138  0.0782095477590843  0.5639613209017541
  0.6979334140617941  0.9186447451524719  0.4364216039198172
  0.6979335239693709  0.4186448146075789  0.4364193175305255
  0.4997497338760963  0.9214887569890526  0.4362908542823646
  0.4997546348531424  0.4214777890846964  0.4363710309895566
  0.5329176086947057  0.6716875098477870  0.4361839667178379
  0.5329219438344940  0.1716930206020806  0.4361973902877226
  0.6324197929502888  0.9219284830520852  0.4360455288878901
  0.6324197626920868  0.4219307641560020  0.4360451692404191
  0.6655013540588047  0.6724413645578631  0.4361530017432602
  0.6655018527867389  0.1724401539764601  0.4361524389249966
  0.5660187954808514  0.9218540564353461  0.4360822690627725
  0.5660195152740585  0.4218555080848107  0.4360895706273823
  0.5991335947752411  0.6715037816139497  0.4360303829997685
  0.5991349787869242  0.1715013222141738  0.4360297090787839
  0.7236582619654190  0.9791541639051193  0.4367645182120322
  0.7236585534103129  0.4791548643084042  0.4367618528917663
  0.7236622465322660  0.8022685484209072  0.5631256128702327
  0.7236631616489675  0.3022650757558505  0.5631378314296539
  0.7236310462302173  0.6978630156237192  0.4368757231288089
  0.7236316376442813  0.1978642324959838  0.4368740639393353
  0.7236890219200683  0.0209829006979307  0.5632488145701373
  0.7236890979736955  0.5209864052502662  0.5632351088498919
  0.2759596832464669  0.0204933759304306  0.5702585223026696
  0.2756963026466419  0.5222483085261654  0.5656170921169011
  0.2765027433596065  0.1959016415931386  0.4241665187969726
  0.2758099348957489  0.6976817795722871  0.4388765628257345
  0.2764157063771796  0.3023862985761924  0.5757736285833928
  0.2758183800519706  0.8024830390453250  0.5628063375469401
  0.2757657736156811  0.9787791013386594  0.4385637184566179
  0.2763664227659475  0.4805510246575169  0.4248512125058035
  0.2421687548794408  0.3216017165628094  0.4988245063813444

             NaN             NaN             NaN
             NaN             NaN             NaN
             NaN             NaN             NaN
             NaN             NaN             NaN
             NaN             NaN             NaN
             NaN             NaN             NaN
             NaN             NaN             NaN
             NaN             NaN             NaN
             NaN             NaN             NaN
             NaN             NaN             NaN
             NaN             NaN             NaN
             NaN             NaN             NaN
             NaN             NaN             NaN
             NaN             NaN             NaN
             NaN             NaN             NaN
             NaN             NaN             NaN
             NaN             NaN             NaN
             NaN             NaN             NaN
             NaN             NaN             NaN
             NaN             NaN             NaN
             NaN             NaN             NaN
             NaN             NaN             NaN
             NaN             NaN             NaN
             NaN             NaN             NaN
             NaN             NaN             NaN
             NaN             NaN             NaN
             NaN             NaN             NaN
             NaN             NaN             NaN
             NaN             NaN             NaN
             NaN             NaN             NaN
             NaN             NaN             NaN
             NaN             NaN             NaN
             NaN             NaN             NaN
             NaN             NaN             NaN
             NaN             NaN             NaN
             NaN             NaN             NaN
             NaN             NaN             NaN
             NaN             NaN             NaN
             NaN             NaN             NaN
             NaN             NaN             NaN
             NaN             NaN             NaN
             NaN             NaN             NaN
             NaN             NaN             NaN
             NaN             NaN             NaN
             NaN             NaN             NaN
             NaN             NaN             NaN
             NaN             NaN             NaN
             NaN             NaN             NaN
             NaN             NaN             NaN
             NaN             NaN             NaN
             NaN             NaN             NaN
             NaN             NaN             NaN
             NaN             NaN             NaN
             NaN             NaN             NaN
             NaN             NaN             NaN
             NaN             NaN             NaN
             NaN             NaN             NaN
             NaN             NaN             NaN
             NaN             NaN             NaN
             NaN             NaN             NaN
             NaN             NaN             NaN
             NaN             NaN             NaN
             NaN             NaN             NaN
             NaN             NaN             NaN
             NaN             NaN             NaN
             NaN             NaN             NaN
             NaN             NaN             NaN
             NaN             NaN             NaN
             NaN             NaN             NaN
             NaN             NaN             NaN
             NaN             NaN             NaN
             NaN             NaN             NaN
             NaN             NaN             NaN
             NaN             NaN             NaN
             NaN             NaN             NaN
             NaN             NaN             NaN
             NaN             NaN             NaN
             NaN             NaN             NaN
             NaN             NaN             NaN
             NaN             NaN             NaN
             NaN             NaN             NaN
             NaN             NaN             NaN
             NaN             NaN             NaN
             NaN             NaN             NaN
             NaN             NaN             NaN
             NaN             NaN             NaN
             NaN             NaN             NaN
             NaN             NaN             NaN
             NaN             NaN             NaN
             NaN             NaN             NaN
             NaN             NaN             NaN
             NaN             NaN             NaN
             NaN             NaN             NaN
             NaN             NaN             NaN
             NaN             NaN             NaN
             NaN             NaN             NaN
             NaN             NaN             NaN
             NaN             NaN             NaN
             NaN             NaN             NaN
             NaN             NaN             NaN
             NaN             NaN             NaN
             NaN             NaN             NaN
             NaN             NaN             NaN
             NaN             NaN             NaN
             NaN             NaN             NaN
             NaN             NaN             NaN
             NaN             NaN             NaN
             NaN             NaN             NaN
             NaN             NaN             NaN
             NaN             NaN             NaN
             NaN             NaN             NaN
             NaN             NaN             NaN
             NaN             NaN             NaN
             NaN             NaN             NaN
             NaN             NaN             NaN
             NaN             NaN             NaN
             NaN             NaN             NaN
             NaN             NaN             NaN
             NaN             NaN             NaN
             NaN             NaN             NaN
             NaN             NaN             NaN
