C    H    Li                            
   1.0000000000000000     
    37.0938796996999969    0.0000000000000000    0.0000000000000000
     0.0000000000000000    7.3546423911999996    0.0000000000000000
     0.0000000000000000    0.0000000000000000   27.8030738831000015
   C    H    Li
   108    12     1
Direct
  0.4992555147338391  0.8334447459309171  0.4369253809637819
  0.7298870467203051  0.8331714121969416  0.5629949341541666
  0.3838524347385442  0.8334242116578119  0.4361545310219206
  0.6147115970658595  0.8334856269767641  0.4370741645233436
  0.4415491224634787  0.6667797225787383  0.4367413820067843
  0.6724946113845268  0.6668264799070394  0.4368857476365633
  0.3261551279657239  0.6670213693722123  0.4344147743515132
  0.5569737466863036  0.6668146151220031  0.4370175412285683
  0.4992528462110495  0.1667819374001347  0.4369041197347840
  0.7298868590865167  0.1665038407369910  0.5629939591871317
  0.3838439851537476  0.1667021517733354  0.4358450357137200
  0.6147121318832790  0.1668197734346088  0.4370726380892593
  0.4415494018811106  0.0000763715202786  0.4367404604969599
  0.6724946346243712  0.0001562637201632  0.4368856990796114
  0.3261547274567385  0.9998080792512239  0.4344168269737467
  0.5569736279326873  0.0001404567769129  0.4370175847774154
  0.4992528454279717  0.5001078700347906  0.4369043481660166
  0.7298868653226436  0.4998389954169071  0.5629939831012485
  0.3838438890452729  0.5001398845493930  0.4358476447932521
  0.6147121093532086  0.5001508982543487  0.4370726614635462
  0.4415387926090114  0.3334268361637691  0.4366514828631632
  0.6724939383243659  0.3334913225158446  0.4368857128898859
  0.3262834017263537  0.3334118124730140  0.4331090482471405
  0.5569722451005141  0.3334767862941472  0.4370101067381095
  0.2689422202261890  0.8334102258719610  0.4324881284142579
  0.4994133021126235  0.8332013541948867  0.5628002062975080
  0.3839436145683705  0.8332298970754930  0.5627317520874230
  0.6148505814400190  0.8331761055112006  0.5637454031035777
  0.4416797818635365  0.6665622473592488  0.5624265824931369
  0.6725494069624213  0.6665020820020079  0.5637046686838534
  0.3261592587658081  0.6667928669469417  0.5647962531042611
  0.5571340797562956  0.6665306329382350  0.5633515139473264
  0.2688721667929040  0.1662640388599901  0.4306785531967840
  0.4994102476546535  0.1665320889902146  0.5628067315895352
  0.3839221562070380  0.1665376863269989  0.5628547800391940
  0.6148497065567635  0.1665082658050555  0.5637454034236267
  0.4416796763986696  0.9998865805470698  0.5624263845653062
  0.6725493997204455  0.9998347691183274  0.5637046732234551
  0.3261588469856863  0.9996583483551587  0.5647928025960834
  0.5571341436099022  0.9998615817446089  0.5633514987243179
  0.2688725626351631  0.5005565662525870  0.4306844283677638
  0.4994101656225979  0.4998700303895720  0.5628068776973635
  0.3839225188866421  0.4999232784439290  0.5628554633093265
  0.6148496888728090  0.4998439897447486  0.5637453749210056
  0.4416731202070739  0.3332234533265669  0.5624544405320367
  0.6725490716095724  0.3331684501642376  0.5637045782859132
  0.3261317158006687  0.3332291049301546  0.5653567138578716
  0.5571332341441086  0.3331961530511422  0.5633525435406427
  0.4607815876608202  0.8334292779962643  0.4368308023173375
  0.6916301123219117  0.8334865965014150  0.4367410045722778
  0.3452945128786472  0.8334174705903549  0.4353100578595890
  0.5762106038466276  0.8334809360293313  0.4370284759423218
  0.4030548417358187  0.6667954683604854  0.4363636733539261
  0.6339278949376504  0.6668170558515147  0.4370402263125543
  0.2872973800163828  0.6677206173388275  0.4327617881773841
  0.5184936731400822  0.6667833204214790  0.4369388024629511
  0.4607735685789495  0.1667664454199549  0.4367725160570930
  0.6916297478942771  0.1668201671450839  0.4367413038773063
  0.3452783536638157  0.1665656223738134  0.4345065705857072
  0.5762095073758378  0.1668140594253128  0.4370238342462880
  0.4030552096879220  0.0000544522823092  0.4363623507068175
  0.6339279453543074  0.0001486149599916  0.4370401895092356
  0.2872968896460585  0.9991044179957108  0.4327623842571489
  0.5184935602319952  0.0001152844638498  0.4369386972558346
  0.4607734552380860  0.5000942342473075  0.4367731540745524
  0.6916297330442557  0.5001530610581270  0.4367413489686024
  0.3452782969048525  0.5002617090543793  0.4345065885270552
  0.5762094858786271  0.5001468807360944  0.4370238173084283
  0.4030316954821711  0.3334217569666740  0.4361377141591044
  0.6339274448644353  0.3334827845171263  0.4370391739986124
  0.2873733594801579  0.3334111850844146  0.4298466737126757
  0.5184907864260668  0.3334493626072076  0.4369232336356406
  0.4801693828866759  0.9998751281113665  0.5626467781068516
  0.7114332535055337  0.9998403335418194  0.5633348963967659
  0.3647211655873753  0.9998500944778158  0.5632190201780122
  0.5956370179273313  0.9998480968341100  0.5636605669201076
  0.4224472181431146  0.8332270029383054  0.5624126034685946
  0.6534161731177811  0.8331633610045898  0.5637933378181539
  0.3070367318168210  0.8332236591900158  0.5657784290692986
  0.5378987728710306  0.8332008259580801  0.5631785665369421
  0.4801661653163488  0.3332074155968147  0.5626588742756613
  0.7114335624371720  0.3331732512083999  0.5633347965477861
  0.3647124148811531  0.3332310595796255  0.5634206998954325
  0.5956369483739400  0.3331809992676487  0.5636609901254078
  0.4224357447751827  0.1665422921480310  0.5624510129106396
  0.6534156654496119  0.1664943011971319  0.5637930543086628
  0.3070338166306706  0.1661861548868545  0.5664594785740773
  0.5378974011336154  0.1665294492891846  0.5631800263864023
  0.4801694153667059  0.6665400956927832  0.5626469985120826
  0.7114332618045361  0.6665062130616995  0.5633349118836074
  0.3647210573744236  0.6666075404913060  0.5632204596593589
  0.5956369720759533  0.6665137973296967  0.5636605440890685
  0.4224362217886001  0.4999088416950828  0.5624509546361889
  0.6534156559790905  0.4998324571162481  0.5637930384489617
  0.3070341645812801  0.5002696627655659  0.5664644706139896
  0.5378973436672285  0.4998717907062060  0.5631800692788136
  0.2681869495625054  0.8332232101635496  0.5683196712044427
  0.2680800947188380  0.5008992450135124  0.5698492607967326
  0.2680794901731217  0.1655488929562787  0.5698445297079958
  0.7305100267440345  0.8334642555170088  0.4364095566078257
  0.7305109201485492  0.5001303996631149  0.4364110632837370
  0.7305109341989443  0.1667981403066971  0.4364110215604268
  0.2497427365594999  0.6672316967121912  0.5700523625308298
  0.2495592156982306  0.3332249660044616  0.5721021541712762
  0.2497434398619273  0.9992136221303741  0.5700495461267405
  0.7489769205308821  0.0001290401243748  0.4362461455271591
  0.7489774895967477  0.3334636016084453  0.4362489894189828
  0.7489769113963158  0.6667981135736248  0.4362461906783499
  0.2394755229272818  0.8334047501425992  0.4315388804326740
  0.2394882513696804  0.5018345883615581  0.4261046086410784
  0.2394880829272748  0.1649757685675815  0.4260954483554632
  0.7593488544627562  0.8331794773385135  0.5622564006996931
  0.7593486135518388  0.4998467009782808  0.5622535975359727
  0.7593486109557253  0.1665120011026849  0.5622535864427175
  0.2203199124742963  0.6677050668003437  0.5723924240136756
  0.2202851711087644  0.3332285739153615  0.5769686178070348
  0.2203207366840966  0.9987496010878505  0.5723920609601290
  0.7784513595468153  0.0001224195547969  0.4359783882065943
  0.7784518885369379  0.3334583269649136  0.4359816886367202
  0.7784513488010115  0.6667940416242832  0.4359784339060653
  0.2590138076380750  0.3333679340427082  0.4964374058656315

             NaN             NaN             NaN
             NaN             NaN             NaN
             NaN             NaN             NaN
             NaN             NaN             NaN
             NaN             NaN             NaN
             NaN             NaN             NaN
             NaN             NaN             NaN
             NaN             NaN             NaN
             NaN             NaN             NaN
             NaN             NaN             NaN
             NaN             NaN             NaN
             NaN             NaN             NaN
             NaN             NaN             NaN
             NaN             NaN             NaN
             NaN             NaN             NaN
             NaN             NaN             NaN
             NaN             NaN             NaN
             NaN             NaN             NaN
             NaN             NaN             NaN
             NaN             NaN             NaN
             NaN             NaN             NaN
             NaN             NaN             NaN
             NaN             NaN             NaN
             NaN             NaN             NaN
             NaN             NaN             NaN
             NaN             NaN             NaN
             NaN             NaN             NaN
             NaN             NaN             NaN
             NaN             NaN             NaN
             NaN             NaN             NaN
             NaN             NaN             NaN
             NaN             NaN             NaN
             NaN             NaN             NaN
             NaN             NaN             NaN
             NaN             NaN             NaN
             NaN             NaN             NaN
             NaN             NaN             NaN
             NaN             NaN             NaN
             NaN             NaN             NaN
             NaN             NaN             NaN
             NaN             NaN             NaN
             NaN             NaN             NaN
             NaN             NaN             NaN
             NaN             NaN             NaN
             NaN             NaN             NaN
             NaN             NaN             NaN
             NaN             NaN             NaN
             NaN             NaN             NaN
             NaN             NaN             NaN
             NaN             NaN             NaN
             NaN             NaN             NaN
             NaN             NaN             NaN
             NaN             NaN             NaN
             NaN             NaN             NaN
             NaN             NaN             NaN
             NaN             NaN             NaN
             NaN             NaN             NaN
             NaN             NaN             NaN
             NaN             NaN             NaN
             NaN             NaN             NaN
             NaN             NaN             NaN
             NaN             NaN             NaN
             NaN             NaN             NaN
             NaN             NaN             NaN
             NaN             NaN             NaN
             NaN             NaN             NaN
             NaN             NaN             NaN
             NaN             NaN             NaN
             NaN             NaN             NaN
             NaN             NaN             NaN
             NaN             NaN             NaN
             NaN             NaN             NaN
             NaN             NaN             NaN
             NaN             NaN             NaN
             NaN             NaN             NaN
             NaN             NaN             NaN
             NaN             NaN             NaN
             NaN             NaN             NaN
             NaN             NaN             NaN
             NaN             NaN             NaN
             NaN             NaN             NaN
             NaN             NaN             NaN
             NaN             NaN             NaN
             NaN             NaN             NaN
             NaN             NaN             NaN
             NaN             NaN             NaN
             NaN             NaN             NaN
             NaN             NaN             NaN
             NaN             NaN             NaN
             NaN             NaN             NaN
             NaN             NaN             NaN
             NaN             NaN             NaN
             NaN             NaN             NaN
             NaN             NaN             NaN
             NaN             NaN             NaN
             NaN             NaN             NaN
             NaN             NaN             NaN
             NaN             NaN             NaN
             NaN             NaN             NaN
             NaN             NaN             NaN
             NaN             NaN             NaN
             NaN             NaN             NaN
             NaN             NaN             NaN
             NaN             NaN             NaN
             NaN             NaN             NaN
             NaN             NaN             NaN
             NaN             NaN             NaN
             NaN             NaN             NaN
             NaN             NaN             NaN
             NaN             NaN             NaN
             NaN             NaN             NaN
             NaN             NaN             NaN
             NaN             NaN             NaN
             NaN             NaN             NaN
             NaN             NaN             NaN
             NaN             NaN             NaN
             NaN             NaN             NaN
             NaN             NaN             NaN
             NaN             NaN             NaN
             NaN             NaN             NaN
             NaN             NaN             NaN
