C4                                      
   1.0000000000000000     
    37.0938796996999969    0.0000000000000000    0.0000000000000000
     0.0000000000000000    7.3546423911999996    0.0000000000000000
     0.0000000000000000    0.0000000000000000   27.8030738831000015
   C    H    Li
   108    12     1
Direct
  0.4998515286034717  0.8334220658140623  0.4367931417827222
  0.7305641488650352  0.8332251950989402  0.5635579598432940
  0.3845146310497043  0.8333573959505998  0.4341429077248122
  0.6152570322378708  0.8333936724848527  0.4367424473452530
  0.4421875502478088  0.6667375917162630  0.4359069349110740
  0.6730070512342508  0.6667041882308027  0.4363395095137292
  0.3268357999550986  0.6670210762457600  0.4317201389708387
  0.5575380599627664  0.6667390800167254  0.4369570766303923
  0.4998469082270489  0.1666727292307257  0.4366654221396686
  0.7305599753959697  0.1666096292415986  0.5635636050992758
  0.3845166793256425  0.1666488697153099  0.4338298979379118
  0.6152540942053619  0.1667092972164070  0.4368229374846493
  0.4421788238671880  0.0000379415499907  0.4358736079619732
  0.6730011056387966  0.0000311472433978  0.4363223296923167
  0.3268374835836951  0.9997522594526060  0.4317124315245948
  0.5575346554520735  0.0000601968425329  0.4369440590082334
  0.4998500525590188  0.5000517723070530  0.4366801776197633
  0.7305579678490020  0.4999447546945888  0.5635520211255383
  0.3845166111674416  0.5001220998646474  0.4338366825007256
  0.6152481702808714  0.5000385604578597  0.4368378652279645
  0.4421776139005686  0.3333668535536276  0.4356834532004754
  0.6730023608090079  0.3333899968534411  0.4363480474084156
  0.3269305042308162  0.3333305254238184  0.4304574678069173
  0.5575332967070565  0.3333587303415726  0.4369489718194259
  0.2695287051303907  0.8333219382942474  0.4305644795654615
  0.5001867146896899  0.8333114290116583  0.5632067973865347
  0.3847441169549057  0.8332876536354306  0.5651812720082248
  0.6155689149140997  0.8332468727246791  0.5635651723363324
  0.4424701933435173  0.6666615323356879  0.5638303411978001
  0.6732514293641216  0.6666374796664627  0.5638811594905917
  0.3269950780866822  0.6671965982118380  0.5674211004523144
  0.5578667657859384  0.6666399246975629  0.5631901005660396
  0.2694612763041064  0.1661797258998732  0.4294112122941840
  0.5001782872018836  0.1665927183040878  0.5632493087265686
  0.3847197617516329  0.1665639565559118  0.5653477136179177
  0.6155651834393083  0.1666327128099425  0.5635055594788554
  0.4424700714828234  0.9999203665988219  0.5638496536926141
  0.6732475254429247  0.9999237780911088  0.5638795366418421
  0.3270062749978209  0.9993616127395057  0.5674286101251980
  0.5578697959897951  0.9999374207228797  0.5632094105585423
  0.2694639318229051  0.5005708724909113  0.4294163144447651
  0.5001779614164477  0.4999411518524965  0.5632235110312394
  0.3847257586116299  0.4999974716771476  0.5653275526046784
  0.6155617837545364  0.4999244804633349  0.5635001260547483
  0.4424557433547491  0.3332405053313892  0.5639748058314780
  0.6732482605954431  0.3332400422350617  0.5638796623330862
  0.3269628782899971  0.3333129989281147  0.5679577908183973
  0.5578627310030981  0.3332474050716030  0.5631488250553289
  0.4613998110645881  0.8334076202226015  0.4362970234123935
  0.6921352779674166  0.8333539721115386  0.4361722182207188
  0.3459743083506481  0.8333558718285872  0.4327182228866562
  0.5767670819039097  0.8334128432901764  0.4369678795322542
  0.4037072778413204  0.6667675235373451  0.4347859637514020
  0.6344573964762219  0.6667207021090391  0.4366030314628233
  0.2879305938310779  0.6673995586520505  0.4305741790940729
  0.5190687871122961  0.6667343695632795  0.4368397991377435
  0.4613909292064164  0.1666962825860949  0.4361443090979904
  0.6921327314522401  0.1667194440105817  0.4361457493937095
  0.3459738169813917  0.1663683620230003  0.4319304569355964
  0.5767653133853159  0.1666981739617341  0.4369200121603924
  0.4037106660179148  0.9999972001663835  0.4347707790897815
  0.6344571135464676  0.0000483395577504  0.4366020293668456
  0.2879344452620742  0.9993187459304096  0.4305713326785536
  0.5190739401621158  0.0000479725730216  0.4368399203267259
  0.4613947906700062  0.5000481936206569  0.4361832911623864
  0.6921341988237657  0.5000445082938114  0.4361799207682751
  0.3459723879526209  0.5003873394026783  0.4319381377370490
  0.5767658272463905  0.5000393431627046  0.4369455953617489
  0.4036857951878616  0.3333561998992636  0.4344606934461979
  0.6344508449561275  0.3333630652877915  0.4367195284036782
  0.2879007488518965  0.3333694314501088  0.4279747621657677
  0.5190638752787109  0.3333624172940688  0.4367891055116004
  0.4809446391004002  0.9999458252749491  0.5633556130953039
  0.7121108932620857  0.9998984668680890  0.5637764869780639
  0.3655206657249082  0.9998088781587242  0.5659077119789799
  0.5963530672292876  0.9999396069141611  0.5634109724238527
  0.4232415129564586  0.8332935818277676  0.5641822351450045
  0.6541235507838437  0.8332500720702285  0.5638310051902025
  0.3078289553625808  0.8332853497218551  0.5681513777287819
  0.5386473082944079  0.8333048439156627  0.5631796266045939
  0.4809464571761950  0.3332758470542032  0.5634275214766049
  0.7121094654516682  0.3332635195275486  0.5637882511335022
  0.3655796999337042  0.3332759877333231  0.5660379665451103
  0.5963539419903512  0.3332496774737521  0.5633433379012800
  0.4232246600156842  0.1665447015473660  0.5643266034698513
  0.6541211321972469  0.1666101664994599  0.5638092432610620
  0.3078152777695138  0.1660153841354983  0.5687645875160712
  0.5386375117679094  0.1665885348744993  0.5631650338272962
  0.4809535794727964  0.6666269811152148  0.5633402240904957
  0.7121104853371065  0.6666058848617880  0.5637805157064690
  0.3655179650248641  0.6667734682852569  0.5659002379029090
  0.5963580050574677  0.6666196201619456  0.5634109940913135
  0.4232201990192621  0.4999673542645411  0.5642975955104674
  0.6541228326086994  0.4999414039449519  0.5638000347643839
  0.3078061447954212  0.5005960333015054  0.5687512450724270
  0.5386377127363318  0.4999499310777509  0.5631364577438234
  0.2688882036370330  0.8332757683942447  0.5696549840585519
  0.2687396838044194  0.5009813358792528  0.5706276545291900
  0.2687424706200972  0.1656135294010426  0.5706254069067427
  0.7310001965583481  0.8333458644216662  0.4359180649377663
  0.7310070957242303  0.5000727400939127  0.4359202831587936
  0.7310013811897420  0.1667001623942710  0.4359080446553634
  0.2504061655657779  0.6673770012153426  0.5704674521962758
  0.2502955669570639  0.3333053775437378  0.5707739812479957
  0.2504041601657647  0.9991984285035471  0.5704654732306835
  0.7494676608084987  0.0000106472803694  0.4358442051428639
  0.7494656568135483  0.3333861585795006  0.4358389018769628
  0.7494682567851427  0.6667239723142231  0.4358467545767937
  0.2400673296951581  0.8335024680479606  0.4300655199889860
  0.2399982953189479  0.5007983938323122  0.4280283514325518
  0.2399889683715983  0.1657966515157696  0.4280371946145323
  0.7600247594606486  0.8333767034322577  0.5629828112989941
  0.7600227315453196  0.4999128026081650  0.5629928439430572
  0.7600300287082788  0.1664545269400222  0.5629837091184413
  0.2209610521085992  0.6676014342694288  0.5713818325206788
  0.2208521561583510  0.3331979385885333  0.5715008290825025
  0.2209467358531114  0.9990829872307145  0.5713641181719211
  0.7789521316477845  0.0000438636889442  0.4358398753511423
  0.7789388275421558  0.3332910692886699  0.4358290304985672
  0.7789351220368843  0.6667936825907645  0.4358324424808373
  0.2825994746725300  0.3332619146773297  0.5035688219618422

  0.00000000E+00  0.00000000E+00  0.00000000E+00
  0.00000000E+00  0.00000000E+00  0.00000000E+00
  0.00000000E+00  0.00000000E+00  0.00000000E+00
  0.00000000E+00  0.00000000E+00  0.00000000E+00
  0.00000000E+00  0.00000000E+00  0.00000000E+00
  0.00000000E+00  0.00000000E+00  0.00000000E+00
  0.00000000E+00  0.00000000E+00  0.00000000E+00
  0.00000000E+00  0.00000000E+00  0.00000000E+00
  0.00000000E+00  0.00000000E+00  0.00000000E+00
  0.00000000E+00  0.00000000E+00  0.00000000E+00
  0.00000000E+00  0.00000000E+00  0.00000000E+00
  0.00000000E+00  0.00000000E+00  0.00000000E+00
  0.00000000E+00  0.00000000E+00  0.00000000E+00
  0.00000000E+00  0.00000000E+00  0.00000000E+00
  0.00000000E+00  0.00000000E+00  0.00000000E+00
  0.00000000E+00  0.00000000E+00  0.00000000E+00
  0.00000000E+00  0.00000000E+00  0.00000000E+00
  0.00000000E+00  0.00000000E+00  0.00000000E+00
  0.00000000E+00  0.00000000E+00  0.00000000E+00
  0.00000000E+00  0.00000000E+00  0.00000000E+00
  0.00000000E+00  0.00000000E+00  0.00000000E+00
  0.00000000E+00  0.00000000E+00  0.00000000E+00
  0.00000000E+00  0.00000000E+00  0.00000000E+00
  0.00000000E+00  0.00000000E+00  0.00000000E+00
  0.00000000E+00  0.00000000E+00  0.00000000E+00
  0.00000000E+00  0.00000000E+00  0.00000000E+00
  0.00000000E+00  0.00000000E+00  0.00000000E+00
  0.00000000E+00  0.00000000E+00  0.00000000E+00
  0.00000000E+00  0.00000000E+00  0.00000000E+00
  0.00000000E+00  0.00000000E+00  0.00000000E+00
  0.00000000E+00  0.00000000E+00  0.00000000E+00
  0.00000000E+00  0.00000000E+00  0.00000000E+00
  0.00000000E+00  0.00000000E+00  0.00000000E+00
  0.00000000E+00  0.00000000E+00  0.00000000E+00
  0.00000000E+00  0.00000000E+00  0.00000000E+00
  0.00000000E+00  0.00000000E+00  0.00000000E+00
  0.00000000E+00  0.00000000E+00  0.00000000E+00
  0.00000000E+00  0.00000000E+00  0.00000000E+00
  0.00000000E+00  0.00000000E+00  0.00000000E+00
  0.00000000E+00  0.00000000E+00  0.00000000E+00
  0.00000000E+00  0.00000000E+00  0.00000000E+00
  0.00000000E+00  0.00000000E+00  0.00000000E+00
  0.00000000E+00  0.00000000E+00  0.00000000E+00
  0.00000000E+00  0.00000000E+00  0.00000000E+00
  0.00000000E+00  0.00000000E+00  0.00000000E+00
  0.00000000E+00  0.00000000E+00  0.00000000E+00
  0.00000000E+00  0.00000000E+00  0.00000000E+00
  0.00000000E+00  0.00000000E+00  0.00000000E+00
  0.00000000E+00  0.00000000E+00  0.00000000E+00
  0.00000000E+00  0.00000000E+00  0.00000000E+00
  0.00000000E+00  0.00000000E+00  0.00000000E+00
  0.00000000E+00  0.00000000E+00  0.00000000E+00
  0.00000000E+00  0.00000000E+00  0.00000000E+00
  0.00000000E+00  0.00000000E+00  0.00000000E+00
  0.00000000E+00  0.00000000E+00  0.00000000E+00
  0.00000000E+00  0.00000000E+00  0.00000000E+00
  0.00000000E+00  0.00000000E+00  0.00000000E+00
  0.00000000E+00  0.00000000E+00  0.00000000E+00
  0.00000000E+00  0.00000000E+00  0.00000000E+00
  0.00000000E+00  0.00000000E+00  0.00000000E+00
  0.00000000E+00  0.00000000E+00  0.00000000E+00
  0.00000000E+00  0.00000000E+00  0.00000000E+00
  0.00000000E+00  0.00000000E+00  0.00000000E+00
  0.00000000E+00  0.00000000E+00  0.00000000E+00
  0.00000000E+00  0.00000000E+00  0.00000000E+00
  0.00000000E+00  0.00000000E+00  0.00000000E+00
  0.00000000E+00  0.00000000E+00  0.00000000E+00
  0.00000000E+00  0.00000000E+00  0.00000000E+00
  0.00000000E+00  0.00000000E+00  0.00000000E+00
  0.00000000E+00  0.00000000E+00  0.00000000E+00
  0.00000000E+00  0.00000000E+00  0.00000000E+00
  0.00000000E+00  0.00000000E+00  0.00000000E+00
  0.00000000E+00  0.00000000E+00  0.00000000E+00
  0.00000000E+00  0.00000000E+00  0.00000000E+00
  0.00000000E+00  0.00000000E+00  0.00000000E+00
  0.00000000E+00  0.00000000E+00  0.00000000E+00
  0.00000000E+00  0.00000000E+00  0.00000000E+00
  0.00000000E+00  0.00000000E+00  0.00000000E+00
  0.00000000E+00  0.00000000E+00  0.00000000E+00
  0.00000000E+00  0.00000000E+00  0.00000000E+00
  0.00000000E+00  0.00000000E+00  0.00000000E+00
  0.00000000E+00  0.00000000E+00  0.00000000E+00
  0.00000000E+00  0.00000000E+00  0.00000000E+00
  0.00000000E+00  0.00000000E+00  0.00000000E+00
  0.00000000E+00  0.00000000E+00  0.00000000E+00
  0.00000000E+00  0.00000000E+00  0.00000000E+00
  0.00000000E+00  0.00000000E+00  0.00000000E+00
  0.00000000E+00  0.00000000E+00  0.00000000E+00
  0.00000000E+00  0.00000000E+00  0.00000000E+00
  0.00000000E+00  0.00000000E+00  0.00000000E+00
  0.00000000E+00  0.00000000E+00  0.00000000E+00
  0.00000000E+00  0.00000000E+00  0.00000000E+00
  0.00000000E+00  0.00000000E+00  0.00000000E+00
  0.00000000E+00  0.00000000E+00  0.00000000E+00
  0.00000000E+00  0.00000000E+00  0.00000000E+00
  0.00000000E+00  0.00000000E+00  0.00000000E+00
  0.00000000E+00  0.00000000E+00  0.00000000E+00
  0.00000000E+00  0.00000000E+00  0.00000000E+00
  0.00000000E+00  0.00000000E+00  0.00000000E+00
  0.00000000E+00  0.00000000E+00  0.00000000E+00
  0.00000000E+00  0.00000000E+00  0.00000000E+00
  0.00000000E+00  0.00000000E+00  0.00000000E+00
  0.00000000E+00  0.00000000E+00  0.00000000E+00
  0.00000000E+00  0.00000000E+00  0.00000000E+00
  0.00000000E+00  0.00000000E+00  0.00000000E+00
  0.00000000E+00  0.00000000E+00  0.00000000E+00
  0.00000000E+00  0.00000000E+00  0.00000000E+00
  0.00000000E+00  0.00000000E+00  0.00000000E+00
  0.00000000E+00  0.00000000E+00  0.00000000E+00
  0.00000000E+00  0.00000000E+00  0.00000000E+00
  0.00000000E+00  0.00000000E+00  0.00000000E+00
  0.00000000E+00  0.00000000E+00  0.00000000E+00
  0.00000000E+00  0.00000000E+00  0.00000000E+00
  0.00000000E+00  0.00000000E+00  0.00000000E+00
  0.00000000E+00  0.00000000E+00  0.00000000E+00
  0.00000000E+00  0.00000000E+00  0.00000000E+00
  0.00000000E+00  0.00000000E+00  0.00000000E+00
  0.00000000E+00  0.00000000E+00  0.00000000E+00
  0.00000000E+00  0.00000000E+00  0.00000000E+00
  0.00000000E+00  0.00000000E+00  0.00000000E+00
  0.00000000E+00  0.00000000E+00  0.00000000E+00
