C4                                      
   1.0000000000000000     
    37.0938796996999969    0.0000000000000000    0.0000000000000000
     0.0000000000000000    7.3546423911999996    0.0000000000000000
     0.0000000000000000    0.0000000000000000   27.8030738831000015
   C    H    Li
   108    12     1
Direct
  0.4998515286034751  0.8334220658140624  0.4367931417827191
  0.7305641488650341  0.8332251950989388  0.5635579598432957
  0.3845146310497047  0.8333573959505969  0.4341429077248143
  0.6152570322378741  0.8333936724848534  0.4367424473452504
  0.4421875502478057  0.6667375917162649  0.4359069349110763
  0.6730070512342479  0.6667041882308045  0.4363395095137285
  0.3268357999551004  0.6670210762457620  0.4317201389708414
  0.5575380599627695  0.6667390800167240  0.4369570766303912
  0.4998469082270509  0.1666727292307247  0.4366654221396722
  0.7305599753959694  0.1666096292415997  0.5635636050992741
  0.3845166793256393  0.1666488697153079  0.4338298979379105
  0.6152540942053604  0.1667092972164042  0.4368229374846522
  0.4421788238671847  0.0000379415499919  0.4358736079619713
  0.6730011056387990  0.0000311472433996  0.4363223296923189
  0.3268374835836919 -0.0002477405473917  0.4317124315245972
  0.5575346554520737  0.0000601968425299  0.4369440590082352
  0.4998500525590177  0.5000517723070501  0.4366801776197617
  0.7305579678490050  0.4999447546945862  0.5635520211255401
  0.3845166111674445  0.5001220998646486  0.4338366825007241
  0.6152481702808694  0.5000385604578605  0.4368378652279631
  0.4421776139005655  0.3333668535536305  0.4356834532004747
  0.6730023608090100  0.3333899968534416  0.4363480474084169
  0.3269305042308179  0.3333305254238174  0.4304574678069183
  0.5575332967070550  0.3333587303415705  0.4369489718194238
  0.2695287051303926  0.8333219382942439  0.4305644795654606
  0.5001867146896876  0.8333114290116609  0.5632067973865376
  0.3847441169549032  0.8332876536354289  0.5651812720082221
  0.6155689149140974  0.8332468727246788  0.5635651723363349
  0.4424701933435177  0.6666615323356866  0.5638303411978012
  0.6732514293641230  0.6666374796664648  0.5638811594905889
  0.3269950780866819  0.6671965982118345  0.5674211004523160
  0.5578667657859382  0.6666399246975617  0.5631901005660398
  0.2694612763041092  0.1661797258998720  0.4294112122941813
  0.5001782872018871  0.1665927183040900  0.5632493087265658
  0.3847197617516324  0.1665639565559151  0.5653477136179155
  0.6155651834393049  0.1666327128099391  0.5635055594788586
  0.4424700714828207 -0.0000796334011809  0.5638496536926133
  0.6732475254429235 -0.0000762219088937  0.5638795366418448
  0.3270062749978191 -0.0006383872604944  0.5674286101251951
  0.5578697959897970 -0.0000625792771196  0.5632094105585426
  0.2694639318229017  0.5005708724909147  0.4294163144447671
  0.5001779614164442  0.4999411518524953  0.5632235110312396
  0.3847257586116269  0.4999974716771456  0.5653275526046753
  0.6155617837545341  0.4999244804633333  0.5635001260547481
  0.4424557433547458  0.3332405053313913  0.5639748058314771
  0.6732482605954407  0.3332400422350641  0.5638796623330827
  0.3269628782899990  0.3333129989281131  0.5679577908183996
  0.5578627310030949  0.3332474050716039  0.5631488250553306
  0.4613998110645852  0.8334076202226018  0.4362970234123933
  0.6921352779674147  0.8333539721115376  0.4361722182207158
  0.3459743083506457  0.8333558718285862  0.4327182228866596
  0.5767670819039084  0.8334128432901741  0.4369678795322570
  0.4037072778413219  0.6667675235373460  0.4347859637514025
  0.6344573964762187  0.6667207021090414  0.4366030314628241
  0.2879305938310764  0.6673995586520504  0.4305741790940744
  0.5190687871122929  0.6667343695632791  0.4368397991377423
  0.4613909292064165  0.1666962825860961  0.4361443090979874
  0.6921327314522401  0.1667194440105782  0.4361457493937084
  0.3459738169813914  0.1663683620229977  0.4319304569355977
  0.5767653133853193  0.1666981739617312  0.4369200121603891
  0.4037106660179132 -0.0000027998336152  0.4347707790897785
  0.6344571135464695  0.0000483395577504  0.4366020293668479
  0.2879344452620730 -0.0006812540695915  0.4305713326785545
  0.5190739401621155  0.0000479725730190  0.4368399203267225
  0.4613947906700048  0.5000481936206576  0.4361832911623836
  0.6921341988237678  0.5000445082938135  0.4361799207682757
  0.3459723879526194  0.5003873394026810  0.4319381377370474
  0.5767658272463927  0.5000393431627027  0.4369455953617474
  0.4036857951878615  0.3333561998992657  0.4344606934461998
  0.6344508449561246  0.3333630652877927  0.4367195284036769
  0.2879007488518979  0.3333694314501067  0.4279747621657647
  0.5190638752787086  0.3333624172940708  0.4367891055116005
  0.4809446391003997 -0.0000541747250481  0.5633556130953028
  0.7121108932620872 -0.0001015331319102  0.5637764869780632
  0.3655206657249058 -0.0001911218412763  0.5659077119789828
  0.5963530672292858 -0.0000603930858364  0.5634109724238516
  0.4232415129564586  0.8332935818277664  0.5641822351450035
  0.6541235507838420  0.8332500720702263  0.5638310051902035
  0.3078289553625799  0.8332853497218579  0.5681513777287845
  0.5386473082944055  0.8333048439156606  0.5631796266045910
  0.4809464571761929  0.3332758470542065  0.5634275214766047
  0.7121094654516689  0.3332635195275491  0.5637882511335022
  0.3655796999337010  0.3332759877333227  0.5660379665451084
  0.5963539419903483  0.3332496774737488  0.5633433379012798
  0.4232246600156842  0.1665447015473687  0.5643266034698525
  0.6541211321972451  0.1666101664994623  0.5638092432610650
  0.3078152777695115  0.1660153841355018  0.5687645875160716
  0.5386375117679073  0.1665885348744986  0.5631650338272931
  0.4809535794727997  0.6666269811152155  0.5633402240904923
  0.7121104853371033  0.6666058848617906  0.5637805157064691
  0.3655179650248614  0.6667734682852587  0.5659002379029066
  0.5963580050574649  0.6666196201619435  0.5634109940913158
  0.4232201990192598  0.4999673542645405  0.5642975955104674
  0.6541228326087021  0.4999414039449487  0.5638000347643828
  0.3078061447954244  0.5005960333015088  0.5687512450724247
  0.5386377127363311  0.4999499310777475  0.5631364577438204
  0.2688882036370317  0.8332757683942439  0.5696549840585545
  0.2687396838044224  0.5009813358792502  0.5706276545291897
  0.2687424706200957  0.1656135294010417  0.5706254069067445
  0.7310001965583455  0.8333458644216696  0.4359180649377690
  0.7310070957242323  0.5000727400939131  0.4359202831587932
  0.7310013811897454  0.1667001623942677  0.4359080446553638
  0.2504061655657788  0.6673770012153393  0.5704674521962776
  0.2502955669570666  0.3333053775437352  0.5707739812479978
  0.2504041601657642 -0.0008015714964563  0.5704654732306842
  0.7494676608084987  0.0000106472803680  0.4358442051428641
  0.7494656568135484  0.3333861585795035  0.4358389018769631
  0.7494682567851458  0.6667239723142196  0.4358467545767957
  0.2400673296951611  0.8335024680479578  0.4300655199889877
  0.2399982953189494  0.5007983938323117  0.4280283514325505
  0.2399889683715965  0.1657966515157664  0.4280371946145344
  0.7600247594606500  0.8333767034322557  0.5629828112989930
  0.7600227315453223  0.4999128026081676  0.5629928439430549
  0.7600300287082818  0.1664545269400216  0.5629837091184410
  0.2209610521086014  0.6676014342694289  0.5713818325206801
  0.2208521561583483  0.3331979385885322  0.5715008290825029
  0.2209467358531116 -0.0009170127692841  0.5713641181719216
  0.7789521316477810  0.0000438636889470  0.4358398753511409
  0.7789388275421577  0.3332910692886670  0.4358290304985640
  0.7789351220368861  0.6667936825907637  0.4358324424808355
  0.2825994746725295  0.3332619146773325  0.5035688219618452

  0.00000000E+00  0.00000000E+00  0.00000000E+00
  0.00000000E+00  0.00000000E+00  0.00000000E+00
  0.00000000E+00  0.00000000E+00  0.00000000E+00
  0.00000000E+00  0.00000000E+00  0.00000000E+00
  0.00000000E+00  0.00000000E+00  0.00000000E+00
  0.00000000E+00  0.00000000E+00  0.00000000E+00
  0.00000000E+00  0.00000000E+00  0.00000000E+00
  0.00000000E+00  0.00000000E+00  0.00000000E+00
  0.00000000E+00  0.00000000E+00  0.00000000E+00
  0.00000000E+00  0.00000000E+00  0.00000000E+00
  0.00000000E+00  0.00000000E+00  0.00000000E+00
  0.00000000E+00  0.00000000E+00  0.00000000E+00
  0.00000000E+00  0.00000000E+00  0.00000000E+00
  0.00000000E+00  0.00000000E+00  0.00000000E+00
  0.00000000E+00  0.00000000E+00  0.00000000E+00
  0.00000000E+00  0.00000000E+00  0.00000000E+00
  0.00000000E+00  0.00000000E+00  0.00000000E+00
  0.00000000E+00  0.00000000E+00  0.00000000E+00
  0.00000000E+00  0.00000000E+00  0.00000000E+00
  0.00000000E+00  0.00000000E+00  0.00000000E+00
  0.00000000E+00  0.00000000E+00  0.00000000E+00
  0.00000000E+00  0.00000000E+00  0.00000000E+00
  0.00000000E+00  0.00000000E+00  0.00000000E+00
  0.00000000E+00  0.00000000E+00  0.00000000E+00
  0.00000000E+00  0.00000000E+00  0.00000000E+00
  0.00000000E+00  0.00000000E+00  0.00000000E+00
  0.00000000E+00  0.00000000E+00  0.00000000E+00
  0.00000000E+00  0.00000000E+00  0.00000000E+00
  0.00000000E+00  0.00000000E+00  0.00000000E+00
  0.00000000E+00  0.00000000E+00  0.00000000E+00
  0.00000000E+00  0.00000000E+00  0.00000000E+00
  0.00000000E+00  0.00000000E+00  0.00000000E+00
  0.00000000E+00  0.00000000E+00  0.00000000E+00
  0.00000000E+00  0.00000000E+00  0.00000000E+00
  0.00000000E+00  0.00000000E+00  0.00000000E+00
  0.00000000E+00  0.00000000E+00  0.00000000E+00
  0.00000000E+00  0.00000000E+00  0.00000000E+00
  0.00000000E+00  0.00000000E+00  0.00000000E+00
  0.00000000E+00  0.00000000E+00  0.00000000E+00
  0.00000000E+00  0.00000000E+00  0.00000000E+00
  0.00000000E+00  0.00000000E+00  0.00000000E+00
  0.00000000E+00  0.00000000E+00  0.00000000E+00
  0.00000000E+00  0.00000000E+00  0.00000000E+00
  0.00000000E+00  0.00000000E+00  0.00000000E+00
  0.00000000E+00  0.00000000E+00  0.00000000E+00
  0.00000000E+00  0.00000000E+00  0.00000000E+00
  0.00000000E+00  0.00000000E+00  0.00000000E+00
  0.00000000E+00  0.00000000E+00  0.00000000E+00
  0.00000000E+00  0.00000000E+00  0.00000000E+00
  0.00000000E+00  0.00000000E+00  0.00000000E+00
  0.00000000E+00  0.00000000E+00  0.00000000E+00
  0.00000000E+00  0.00000000E+00  0.00000000E+00
  0.00000000E+00  0.00000000E+00  0.00000000E+00
  0.00000000E+00  0.00000000E+00  0.00000000E+00
  0.00000000E+00  0.00000000E+00  0.00000000E+00
  0.00000000E+00  0.00000000E+00  0.00000000E+00
  0.00000000E+00  0.00000000E+00  0.00000000E+00
  0.00000000E+00  0.00000000E+00  0.00000000E+00
  0.00000000E+00  0.00000000E+00  0.00000000E+00
  0.00000000E+00  0.00000000E+00  0.00000000E+00
  0.00000000E+00  0.00000000E+00  0.00000000E+00
  0.00000000E+00  0.00000000E+00  0.00000000E+00
  0.00000000E+00  0.00000000E+00  0.00000000E+00
  0.00000000E+00  0.00000000E+00  0.00000000E+00
  0.00000000E+00  0.00000000E+00  0.00000000E+00
  0.00000000E+00  0.00000000E+00  0.00000000E+00
  0.00000000E+00  0.00000000E+00  0.00000000E+00
  0.00000000E+00  0.00000000E+00  0.00000000E+00
  0.00000000E+00  0.00000000E+00  0.00000000E+00
  0.00000000E+00  0.00000000E+00  0.00000000E+00
  0.00000000E+00  0.00000000E+00  0.00000000E+00
  0.00000000E+00  0.00000000E+00  0.00000000E+00
  0.00000000E+00  0.00000000E+00  0.00000000E+00
  0.00000000E+00  0.00000000E+00  0.00000000E+00
  0.00000000E+00  0.00000000E+00  0.00000000E+00
  0.00000000E+00  0.00000000E+00  0.00000000E+00
  0.00000000E+00  0.00000000E+00  0.00000000E+00
  0.00000000E+00  0.00000000E+00  0.00000000E+00
  0.00000000E+00  0.00000000E+00  0.00000000E+00
  0.00000000E+00  0.00000000E+00  0.00000000E+00
  0.00000000E+00  0.00000000E+00  0.00000000E+00
  0.00000000E+00  0.00000000E+00  0.00000000E+00
  0.00000000E+00  0.00000000E+00  0.00000000E+00
  0.00000000E+00  0.00000000E+00  0.00000000E+00
  0.00000000E+00  0.00000000E+00  0.00000000E+00
  0.00000000E+00  0.00000000E+00  0.00000000E+00
  0.00000000E+00  0.00000000E+00  0.00000000E+00
  0.00000000E+00  0.00000000E+00  0.00000000E+00
  0.00000000E+00  0.00000000E+00  0.00000000E+00
  0.00000000E+00  0.00000000E+00  0.00000000E+00
  0.00000000E+00  0.00000000E+00  0.00000000E+00
  0.00000000E+00  0.00000000E+00  0.00000000E+00
  0.00000000E+00  0.00000000E+00  0.00000000E+00
  0.00000000E+00  0.00000000E+00  0.00000000E+00
  0.00000000E+00  0.00000000E+00  0.00000000E+00
  0.00000000E+00  0.00000000E+00  0.00000000E+00
  0.00000000E+00  0.00000000E+00  0.00000000E+00
  0.00000000E+00  0.00000000E+00  0.00000000E+00
  0.00000000E+00  0.00000000E+00  0.00000000E+00
  0.00000000E+00  0.00000000E+00  0.00000000E+00
  0.00000000E+00  0.00000000E+00  0.00000000E+00
  0.00000000E+00  0.00000000E+00  0.00000000E+00
  0.00000000E+00  0.00000000E+00  0.00000000E+00
  0.00000000E+00  0.00000000E+00  0.00000000E+00
  0.00000000E+00  0.00000000E+00  0.00000000E+00
  0.00000000E+00  0.00000000E+00  0.00000000E+00
  0.00000000E+00  0.00000000E+00  0.00000000E+00
  0.00000000E+00  0.00000000E+00  0.00000000E+00
  0.00000000E+00  0.00000000E+00  0.00000000E+00
  0.00000000E+00  0.00000000E+00  0.00000000E+00
  0.00000000E+00  0.00000000E+00  0.00000000E+00
  0.00000000E+00  0.00000000E+00  0.00000000E+00
  0.00000000E+00  0.00000000E+00  0.00000000E+00
  0.00000000E+00  0.00000000E+00  0.00000000E+00
  0.00000000E+00  0.00000000E+00  0.00000000E+00
  0.00000000E+00  0.00000000E+00  0.00000000E+00
  0.00000000E+00  0.00000000E+00  0.00000000E+00
  0.00000000E+00  0.00000000E+00  0.00000000E+00
  0.00000000E+00  0.00000000E+00  0.00000000E+00
  0.00000000E+00  0.00000000E+00  0.00000000E+00
  0.00000000E+00  0.00000000E+00  0.00000000E+00
