C    H    Li
   1.0000000000000000     
  37.2234382628999967   0.0000000000000000   0.0000000000000000
   0.0000000000000000   8.5469398498999993   0.0000000000000000
   0.0000000000000000   0.0000000000000000  27.8030738831000015
C    H    Li
104  16  1  
Direct
  0.4668232022716000  0.0029747182804047  0.4359748556847231  
  0.4668244089794022  0.5029809176602505  0.4359778575080391  
  0.4337423102333778  0.2529362533187728  0.4360187104034131  
  0.4337423631732561  0.7529430586475356  0.4360193312644416  
  0.3342487002880255  0.0026797467038749  0.4360602513266430  
  0.3342462390036143  0.5026822786391438  0.4360666078001494  
  0.3018263938192673  0.2565037827200664  0.4362840166473424  
  0.3018282216504877  0.7564989478690495  0.4362706538515199  
  0.4006135865110421  0.0034845424526811  0.4360363112067432  
  0.4006117607256056  0.5034833076030298  0.4360333386852579  
  0.3673295074398507  0.2530665363073299  0.4360174644199143  
  0.3673330240353211  0.7530677470932136  0.4360152075968241  
  0.4668236337361189  0.9970168263571748  0.5640235894195529  
  0.4668220297279489  0.4970196746271022  0.5640241618168131  
  0.4337412709391233  0.2470580134161073  0.5639795371723998  
  0.4337403071110328  0.7470554063216355  0.5639803734452800  
  0.3342456822850963  0.9973180965528952  0.5639369346819056  
  0.3342461211521691  0.4973209660504112  0.5639360164387018  
  0.3018246491277768  0.2434914052008836  0.5637265317313279  
  0.3018276634139976  0.7435044973018659  0.5637214431208274  
  0.4006107555378576  0.9965112212129110  0.5639630113623643  
  0.4006111945976090  0.4965133985095843  0.5639635305618355  
  0.3673277135964512  0.2469306322520082  0.5639822875524223  
  0.3673308309900032  0.7469330022099058  0.5639820776313216  
  0.4668222510476067  0.1697709113248808  0.4359706290859417  
  0.4668199683895534  0.6697741221594465  0.4359701713402641  
  0.4337385240132859  0.4199059485565460  0.4360128781287471  
  0.4337384819964124  0.9199070743497426  0.4360108105734123  
  0.3342555077050894  0.1704608849996840  0.4360626305400843  
  0.3342576809431039  0.6704634326541129  0.4360563978193551  
  0.3018125805519536  0.4166367332606225  0.4362448249340368  
  0.3018141891386957  0.9166363135525852  0.4362313368478308  
  0.4006107506671565  0.1695103331555750  0.4360139580390333  
  0.4006112169209745  0.6695149252870173  0.4360163251868769  
  0.3673246668427018  0.4200177383697787  0.4360177526203861  
  0.3673276729693187  0.9200216964128496  0.4360151930276636  
  0.3018121084023107  0.0833615549348465  0.5637628251761133  
  0.3018113251545225  0.5833639094641651  0.5637633701749538  
  0.4668203520916124  0.3302314551021252  0.5640286525765325  
  0.4668190316258821  0.8302240135103635  0.5640305369130456  
  0.3673245366548938  0.0799819071662938  0.5639820168457339  
  0.3673248058113773  0.5799783214462323  0.5639815119418023  
  0.3342531388873836  0.3295366717942073  0.5639404713535096  
  0.3342558651850797  0.8295397866806111  0.5639417953328091  
  0.4337371070709100  0.0800934532142647  0.5639885306657803  
  0.4337371660194320  0.5800914290000859  0.5639861140618146  
  0.4006078419489080  0.3304852653872505  0.5639844963353275  
  0.4006098647396949  0.8304817421642973  0.5639810224948365  
  0.5331779478143102  0.9970160260658476  0.5640249815950786  
  0.5331768963544703  0.4970117382025768  0.5640227383757054  
  0.5662591933506748  0.7470583064273645  0.5639808648904322  
  0.5662587164374748  0.2470562196959303  0.5639802900645718  
  0.6657502617556270  0.9973140371753368  0.5639411730306536  
  0.6657524207265015  0.4973167513555383  0.5639352667000573  
  0.6981729648437162  0.7434931542216713  0.5637228862524768  
  0.6981732142516237  0.2434969885604236  0.5637286852813083  
  0.4999996507736659  0.7467770894312603  0.5640224538407150  
  0.4999994912470354  0.2467775086209243  0.5640232960196070  
  0.5993862435049959  0.9965137915103311  0.5639634995032782  
  0.5993872461290918  0.4965079747036375  0.5639654731102396  
  0.6326677462089325  0.7469241248062257  0.5639842050553501  
  0.6326691211713786  0.2469257612101163  0.5639851324947238  
  0.5331779049629101  0.0029794546165156  0.4359758149083279  
  0.5331790856324512  0.5029779453858875  0.4359762596027718  
  0.5662612283024615  0.7529381114446921  0.4360196525746090  
  0.5662604666377614  0.2529389526455970  0.4360185936091427  
  0.6657540483277455  0.0026764502978474  0.4360618807669239  
  0.6657533713916279  0.5026750292901123  0.4360620696149256  
  0.6981749717420895  0.7565007529699075  0.4362708028927835  
  0.6981744859452034  0.2564946669362880  0.4362790772284841  
  0.5000016066841986  0.7532147685956472  0.4359763461884225  
  0.5000016705545340  0.2532184414420900  0.4359789439791498  
  0.5993887093576595  0.0034901727417907  0.4360354501543340  
  0.5993884221802493  0.5034793104069121  0.4360342724565036  
  0.6326703657746029  0.7530706817340964  0.4360157675658510  
  0.6326708093208894  0.2530656411883038  0.4360163345147327  
  0.5331801340171267  0.8302239776882909  0.5640303780759076  
  0.5331797046757782  0.3302196646304238  0.5640294405976755  
  0.5662625137194748  0.5800897952523985  0.5639866701424467  
  0.5662622417679438  0.0800912024982025  0.5639889877850116  
  0.6657423386001915  0.8295306541059836  0.5639409088890499  
  0.6657433779009549  0.3295330480411554  0.5639439126239398  
  0.6981879394893339  0.5833584400419143  0.5637624106846106  
  0.6981874054643341  0.0833554693065295  0.5637687304953819  
  0.4999996233778841  0.5804975071307134  0.5640347035228812  
  0.5000005788936125  0.0804992873807084  0.5640316814403331  
  0.5993898152421612  0.8304867347787231  0.5639850653317630  
  0.5993911558346159  0.3304772564078822  0.5639843569852526  
  0.6326723865771799  0.5799747454712159  0.5639825083697445  
  0.6326716199613869  0.0799733795808109  0.5639848791745026  
  0.6981897785478746  0.9166340657349236  0.4362347740352200  
  0.6981896610101148  0.4166361301546513  0.4362349862862167  
  0.5000006631959707  0.9194949403751964  0.4359682794743886  
  0.5000017075408635  0.4195019231150248  0.4359658729026299  
  0.5331821154893733  0.6697692071628002  0.4359704865886912  
  0.5331815872684923  0.1697729400073249  0.4359699794268047  
  0.6326741246915092  0.9200185778408536  0.4360156972188064  
  0.6326745245101163  0.4200168073069213  0.4360162146146017  
  0.6657445192628016  0.6704629937997673  0.4360580079994745  
  0.6657454987491978  0.1704548887108551  0.4360572067171029  
  0.5662633228303153  0.9199055967779480  0.4360107897055041  
  0.5662632339735894  0.4199007204594070  0.4360131525615172  
  0.5993927668230081  0.6695077293420175  0.4360144673371502  
  0.5993929238214871  0.1695135975117928  0.4360162149090419  
  0.7239170883332977  0.9771232092447562  0.4365262591518026  
  0.7239191126619414  0.4771163962379584  0.4365320459128739  
  0.7238804901434364  0.8041391741890795  0.5633537239683323  
  0.7238813763041732  0.3041332577677091  0.5633655080510495  
  0.7238819307889752  0.6958624686149559  0.4366360718954096  
  0.7238821045776560  0.1958505413827643  0.4366453888796250  
  0.7239154812103723  0.0228658989646652  0.5634800881722565  
  0.7239166708527729  0.5228785025501459  0.5634640049206133  
  0.2760864699694353  0.0228685469777580  0.5634699068025955  
  0.2760840346044867  0.5228778870885862  0.5634664160008114  
  0.2761200277306961  0.1958547439106013  0.4366604587291863  
  0.2761222270039848  0.6958480960365231  0.4366320613033879  
  0.2761183542336760  0.3041350531887707  0.5633581940528770  
  0.2761208633538887  0.8041557093906171  0.5633547764499198  
  0.2760876362230413  0.9771313245743580  0.4365193455495248  
  0.2760850098362754  0.4771148822524446  0.4365488250455062  
  0.1955300000000000  0.3312729613397882  0.4999888601036975  
