C4                                      
   1.0000000000000000     
     7.4018740654000004    0.0000000000000000    0.0000000000000000
    -3.7009378863000002    6.4102104834000002    0.0000000000000000
     0.0000000000000000    0.0000000000000000   27.8030738831000015
   C    Li
    36     1
Direct
  0.9999806825317527  0.0000193174682478  0.4344456519891046
  0.9999806824761669  0.3332947082561035  0.4344456519891046
  0.0009722343024944  0.6671528037090519  0.4344289244733232
  0.3328472261449493  0.9990277656643304  0.4344289244733232
  0.3322928194767730  0.3328130813023936  0.4349492702342609
  0.3328472261117740  0.6671528037090519  0.4344289244733232
  0.6667053214269746  0.0000193174682478  0.4344456519891046
  0.6671869483251023  0.3328130813023936  0.4349492702342609
  0.6671869484826154  0.6677072103216382  0.4349492702342609
 -0.0000029492776901  1.0000029492776936  0.5645352132186563
 -0.0000029493332759  0.3333274446372269  0.5645352132186563
  0.0000132481665084  0.6666733106410525  0.5645301853385265
  0.3333267192129458  0.9999867518003215  0.5645301853385265
  0.3333156984449285  0.3333245207864662  0.5645205086954456
  0.3333267191797705  0.6666733106410525  0.5645301853385265
  0.6666725850458447  1.0000029492776936  0.5645352132186563
  0.6666755088410286  0.3333245207864662  0.5645205086954456
  0.6666755089985417  0.6666843313534858  0.5645205086954456
  0.1101429493278955  0.2217381314611557  0.4344322426940490
  0.1111323865510974  0.5555980864976408  0.4344242329170510
  0.1111323866105130  0.8888676135429802  0.4344242329170510
  0.4439302865026278  0.2211938864637389  0.4349257679764013
  0.4439302864100299  0.5560696837169095  0.4349257679764013
  0.4444018836887286  0.8888676135429802  0.4344242329170510
  0.7782618686747781  0.2217381314611557  0.4344322426940490
  0.7788061135795984  0.5560696837169095  0.4349257679764013
  0.7782618686416028  0.8898570507236696  0.4344322426940490
  0.2222197516823834  0.1111068066525010  0.5645314899874350
  0.2222197517619003  0.4444462734308578  0.5645314899874350
  0.2222222239284832  0.7777777910586749  0.5645376644165125
  0.5555537562796614  0.1111068066525010  0.5645314899874350
  0.5555555820799611  0.4444444477100689  0.5645217209835189
  0.5555537563815817  0.7777802632028493  0.5645314899874350
  0.8888888955910303  0.1111111045174624  0.5645456198019562
  0.8888931934004097  0.4444462734308578  0.5645314899874350
  0.8888931934228274  0.7777802632028493  0.5645314899874350
  0.5555555820799611  0.4444444477100689  0.3753019868942560

  0.00000000E+00  0.00000000E+00  0.00000000E+00
  0.00000000E+00  0.00000000E+00  0.00000000E+00
  0.00000000E+00  0.00000000E+00  0.00000000E+00
  0.00000000E+00  0.00000000E+00  0.00000000E+00
  0.00000000E+00  0.00000000E+00  0.00000000E+00
  0.00000000E+00  0.00000000E+00  0.00000000E+00
  0.00000000E+00  0.00000000E+00  0.00000000E+00
  0.00000000E+00  0.00000000E+00  0.00000000E+00
  0.00000000E+00  0.00000000E+00  0.00000000E+00
  0.00000000E+00  0.00000000E+00  0.00000000E+00
  0.00000000E+00  0.00000000E+00  0.00000000E+00
  0.00000000E+00  0.00000000E+00  0.00000000E+00
  0.00000000E+00  0.00000000E+00  0.00000000E+00
  0.00000000E+00  0.00000000E+00  0.00000000E+00
  0.00000000E+00  0.00000000E+00  0.00000000E+00
  0.00000000E+00  0.00000000E+00  0.00000000E+00
  0.00000000E+00  0.00000000E+00  0.00000000E+00
  0.00000000E+00  0.00000000E+00  0.00000000E+00
  0.00000000E+00  0.00000000E+00  0.00000000E+00
  0.00000000E+00  0.00000000E+00  0.00000000E+00
  0.00000000E+00  0.00000000E+00  0.00000000E+00
  0.00000000E+00  0.00000000E+00  0.00000000E+00
  0.00000000E+00  0.00000000E+00  0.00000000E+00
  0.00000000E+00  0.00000000E+00  0.00000000E+00
  0.00000000E+00  0.00000000E+00  0.00000000E+00
  0.00000000E+00  0.00000000E+00  0.00000000E+00
  0.00000000E+00  0.00000000E+00  0.00000000E+00
  0.00000000E+00  0.00000000E+00  0.00000000E+00
  0.00000000E+00  0.00000000E+00  0.00000000E+00
  0.00000000E+00  0.00000000E+00  0.00000000E+00
  0.00000000E+00  0.00000000E+00  0.00000000E+00
  0.00000000E+00  0.00000000E+00  0.00000000E+00
  0.00000000E+00  0.00000000E+00  0.00000000E+00
  0.00000000E+00  0.00000000E+00  0.00000000E+00
  0.00000000E+00  0.00000000E+00  0.00000000E+00
  0.00000000E+00  0.00000000E+00  0.00000000E+00
  0.00000000E+00  0.00000000E+00  0.00000000E+00
