C4                                      
   1.0000000000000000     
     7.4018740654000004    0.0000000000000000    0.0000000000000000
    -3.7009378863000002    6.4102104834000002    0.0000000000000000
     0.0000000000000000    0.0000000000000000   27.8030738831000015
   C    Li
    36     1
Direct
 -0.0000208945403164  0.0000208945403164  0.4313477920201527
  0.9999791054040992  0.3332915541119732  0.4313477920201527
  1.0010116629448074  0.6671725180302038  0.4313479619770844
  0.3328275118237961 -0.0010116629779827  0.4313479619770844
  0.3322848781872423  0.3328091106576271  0.4319218955906088
  0.3328275117906209  0.6671725180302038  0.4313479619770844
  0.6667084755711046  0.0000208945403164  0.4313477920201527
  0.6671909189698673  0.3328091106576271  0.4319218955906088
  0.6671909191273804  0.6677151516111711  0.4319218955906088
  0.0000004058472195 -0.0000004058472195  0.5677706381903626
  1.0000004057916325  0.3333341548870441  0.5677706381903626
  1.0000073975083166  0.6666703853119582  0.5677673226414420
  0.3333296445420434 -0.0000073975414884  0.5677673226414420
  0.3333355850770387  0.3333344641025240  0.5677548370152216
  0.3333296445088682  0.6666703853119582  0.5677673226414420
  0.6666658747960329 -0.0000004058472195  0.5677706381903626
  0.6666655655249694  0.3333344641025240  0.5677548370152216
  0.6666655656824825  0.6666644447213774  0.5677548370152216
  0.1101058106834170  0.2217195621389163  0.4313553065220277
  0.1111314818100139  0.5555962770154708  0.4313382325972845
  0.1111314818694295  0.8888685182840619  0.4313382325972845
  0.4439234271645786  0.2211801677876394  0.4319122384206756
  0.4439234270719807  0.5560765430549619  0.4319122384206756
  0.4444036931708950  0.8888685182840619  0.4313382325972845
  0.7782804379970164  0.2217195621389163  0.4313553065220277
  0.7788198322556968  0.5560765430549619  0.4319122384206756
  0.7782804379638412  0.8898941893681531  0.4313553065220277
  0.2222051661568990  0.1110962009122009  0.5677616796301547
  0.2222051662364159  0.4444422936456727  0.5677616796301547
  0.2222222239284832  0.7777777910586749  0.5677687537372473
  0.5555577360648468  0.1110962009122009  0.5677616796301547
  0.5555555820799611  0.4444444477100689  0.5677498528797147
  0.5555577361667671  0.7777948487283328  0.5677616796301547
  0.8888888955910303  0.1111111045174624  0.5677728996454390
  0.8889037991407045  0.4444422936456727  0.5677616796301547
  0.8889037991631221  0.7777948487283328  0.5677616796301547
  0.5555555820799611  0.4444444477100689  0.3722616656634242

  0.00000000E+00  0.00000000E+00  0.00000000E+00
  0.00000000E+00  0.00000000E+00  0.00000000E+00
  0.00000000E+00  0.00000000E+00  0.00000000E+00
  0.00000000E+00  0.00000000E+00  0.00000000E+00
  0.00000000E+00  0.00000000E+00  0.00000000E+00
  0.00000000E+00  0.00000000E+00  0.00000000E+00
  0.00000000E+00  0.00000000E+00  0.00000000E+00
  0.00000000E+00  0.00000000E+00  0.00000000E+00
  0.00000000E+00  0.00000000E+00  0.00000000E+00
  0.00000000E+00  0.00000000E+00  0.00000000E+00
  0.00000000E+00  0.00000000E+00  0.00000000E+00
  0.00000000E+00  0.00000000E+00  0.00000000E+00
  0.00000000E+00  0.00000000E+00  0.00000000E+00
  0.00000000E+00  0.00000000E+00  0.00000000E+00
  0.00000000E+00  0.00000000E+00  0.00000000E+00
  0.00000000E+00  0.00000000E+00  0.00000000E+00
  0.00000000E+00  0.00000000E+00  0.00000000E+00
  0.00000000E+00  0.00000000E+00  0.00000000E+00
  0.00000000E+00  0.00000000E+00  0.00000000E+00
  0.00000000E+00  0.00000000E+00  0.00000000E+00
  0.00000000E+00  0.00000000E+00  0.00000000E+00
  0.00000000E+00  0.00000000E+00  0.00000000E+00
  0.00000000E+00  0.00000000E+00  0.00000000E+00
  0.00000000E+00  0.00000000E+00  0.00000000E+00
  0.00000000E+00  0.00000000E+00  0.00000000E+00
  0.00000000E+00  0.00000000E+00  0.00000000E+00
  0.00000000E+00  0.00000000E+00  0.00000000E+00
  0.00000000E+00  0.00000000E+00  0.00000000E+00
  0.00000000E+00  0.00000000E+00  0.00000000E+00
  0.00000000E+00  0.00000000E+00  0.00000000E+00
  0.00000000E+00  0.00000000E+00  0.00000000E+00
  0.00000000E+00  0.00000000E+00  0.00000000E+00
  0.00000000E+00  0.00000000E+00  0.00000000E+00
  0.00000000E+00  0.00000000E+00  0.00000000E+00
  0.00000000E+00  0.00000000E+00  0.00000000E+00
  0.00000000E+00  0.00000000E+00  0.00000000E+00
  0.00000000E+00  0.00000000E+00  0.00000000E+00
