C4                                      
   1.0000000000000000     
     7.4018740654000004    0.0000000000000000    0.0000000000000000
    -3.7009378863000002    6.4102104834000002    0.0000000000000000
     0.0000000000000000    0.0000000000000000   27.8030738831000015
   C    Li
    36     1
Direct
  0.0007543749991812  0.0003771874995906  0.4301896065366150
  0.9999699336193238  0.3333634095176968  0.4302079934672678
  0.9999699336417344  0.6666065538910318  0.4302079934672678
  0.3329561558131970  0.0003771874995906  0.4301896065366150
  0.3329561557576112  0.3325789681934252  0.4301896065366150
  0.3326038215723039  0.6663019256875583  0.4296814068893382
  0.6670314473441269  0.0007295217073085  0.4296814068893382
  0.6667268190850676  0.3333634095176968  0.4302079934672678
  0.6670314474460542  0.6663019256875583  0.4296814068893382
  0.0002054850865484  0.0001027425432742  0.5701169711291931
  0.9999410986852945  0.3333922444517262  0.5698813006611002
  0.9999410987077050  0.6665488840229730  0.5698813006611002
  0.3332306007695134  0.0001027425432742  0.5701169711291931
  0.3332306007139276  0.3331278581060582  0.5701169711291931
  0.3325571555824375  0.6662785926926252  0.5707129813768160
  0.6670547803390600  0.0007761876971747  0.5707129813768160
  0.6667844889531265  0.3333922444517262  0.5698813006611002
  0.6670547804409873  0.6662785926926252  0.5707129813768160
  0.1111428720495625  0.2221904414607962  0.4302114955685974
  0.1103596610392379  0.5551798006919694  0.4301847679012967
  0.1111429093782591  0.8889524903168181  0.4302114955685974
  0.4443809424972683  0.2221904414607962  0.4302114955685974
  0.4440802198407691  0.5548270667216106  0.4296856649511301
  0.4440802496964106  0.8892531830234156  0.4296856649511301
  0.7781535128403593  0.2229736525136254  0.4301847679012967
  0.7781535127477613  0.5551798006919694  0.4301847679012967
  0.7785062467164574  0.8892531830234156  0.4296856649511301
  0.2222222388227593  0.1111111045174624  0.5699119059695543
  0.2219072065768448  0.4439816452784771  0.5701770056609828
  0.2219071767049390  0.7779255910591373  0.5701770056609828
  0.5554077819999890  0.1114261367448032  0.5701770056609828
  0.5554077819814083  0.4439816452784771  0.5701770056609828
  0.5555555821023717  0.7777777910586749  0.5717480632769169
  0.8893517278188335  0.1114261367448032  0.5701770056609828
  0.8888888954373542  0.4444444775062806  0.5698583532967194
  0.8893517277856654  0.7779255910591374  0.5701770056609828
  0.5555555821023717  0.7777777910586749  0.4948025419425100

  0.00000000E+00  0.00000000E+00  0.00000000E+00
  0.00000000E+00  0.00000000E+00  0.00000000E+00
  0.00000000E+00  0.00000000E+00  0.00000000E+00
  0.00000000E+00  0.00000000E+00  0.00000000E+00
  0.00000000E+00  0.00000000E+00  0.00000000E+00
  0.00000000E+00  0.00000000E+00  0.00000000E+00
  0.00000000E+00  0.00000000E+00  0.00000000E+00
  0.00000000E+00  0.00000000E+00  0.00000000E+00
  0.00000000E+00  0.00000000E+00  0.00000000E+00
  0.00000000E+00  0.00000000E+00  0.00000000E+00
  0.00000000E+00  0.00000000E+00  0.00000000E+00
  0.00000000E+00  0.00000000E+00  0.00000000E+00
  0.00000000E+00  0.00000000E+00  0.00000000E+00
  0.00000000E+00  0.00000000E+00  0.00000000E+00
  0.00000000E+00  0.00000000E+00  0.00000000E+00
  0.00000000E+00  0.00000000E+00  0.00000000E+00
  0.00000000E+00  0.00000000E+00  0.00000000E+00
  0.00000000E+00  0.00000000E+00  0.00000000E+00
  0.00000000E+00  0.00000000E+00  0.00000000E+00
  0.00000000E+00  0.00000000E+00  0.00000000E+00
  0.00000000E+00  0.00000000E+00  0.00000000E+00
  0.00000000E+00  0.00000000E+00  0.00000000E+00
  0.00000000E+00  0.00000000E+00  0.00000000E+00
  0.00000000E+00  0.00000000E+00  0.00000000E+00
  0.00000000E+00  0.00000000E+00  0.00000000E+00
  0.00000000E+00  0.00000000E+00  0.00000000E+00
  0.00000000E+00  0.00000000E+00  0.00000000E+00
  0.00000000E+00  0.00000000E+00  0.00000000E+00
  0.00000000E+00  0.00000000E+00  0.00000000E+00
  0.00000000E+00  0.00000000E+00  0.00000000E+00
  0.00000000E+00  0.00000000E+00  0.00000000E+00
  0.00000000E+00  0.00000000E+00  0.00000000E+00
  0.00000000E+00  0.00000000E+00  0.00000000E+00
  0.00000000E+00  0.00000000E+00  0.00000000E+00
  0.00000000E+00  0.00000000E+00  0.00000000E+00
  0.00000000E+00  0.00000000E+00  0.00000000E+00
  0.00000000E+00  0.00000000E+00  0.00000000E+00
