C4
1.0
        7.4018740654         0.0000000000         0.0000000000
       -3.7009378863         6.4102104834         0.0000000000
        0.0000000000         0.0000000000        27.8030738831
    C   Li
   36    1
Cartesian
     0.000000000         0.000000000        11.950768833
    -1.233645999         2.136736891        11.950768833
    -2.467291998         4.273473783        11.950768833
     2.467291429         0.000000000        11.950768833
     1.233645430         2.136736891        11.950768833
    -0.000000569         4.273473783        11.950768833
     4.934582857         0.000000000        11.950768833
     3.700936858         2.136736891        11.950768833
     2.467290860         4.273473783        11.950768833
     0.000000000         0.000000000        15.852304222
    -1.233645999         2.136736891        15.852304222
    -2.467291998         4.273473783        15.852304222
     2.467291429         0.000000000        15.852304222
     1.233645430         2.136736891        15.852304222
    -0.000000569         4.273473783        15.852304222
     4.934582857         0.000000000        15.852304222
     3.700936858         2.136736891        15.852304222
     2.467290860         4.273473783        15.852304222
    -0.000000190         1.424491134        11.950768833
    -1.233646078         3.561227834        11.950768833
    -2.467292132         5.697965299        11.950768833
     2.467291460         1.424491134        11.950768833
     1.233645350         3.561227834        11.950768833
    -0.000000759         5.697965299        11.950768833
     4.934582668         1.424491134        11.950768833
     3.700936779         3.561227834        11.950768833
     2.467290449         5.697965299        11.950768833
     1.233645730         0.712245567        15.852304222
    -0.000000379         2.848982649        15.852304222
    -1.233646489         4.985719350        15.852304222
     3.700937158         0.712245567        15.852304222
     2.467291049         2.848982649        15.852304222
     1.233645161         4.985719350        15.852304222
     6.168228367         0.712245567        15.852304222
     4.934582257         2.848982649        15.852304222
     3.700936369         4.985719350        15.852304222
     1.233645161         4.985719350        13.901536942
