C4                                      
   1.0000000000000000     
    37.2234382628999967    0.0000000000000000    0.0000000000000000
     0.0000000000000000    8.5469398498999993    0.0000000000000000
     0.0000000000000000    0.0000000000000000   27.8030738831000015
   C    H    Li
   104    16     1
Direct
  0.4668232022715983  0.0029747182804059  0.4359748556847265
  0.4668244089793987  0.5029809176602527  0.4359778575080355
  0.4337423102333773  0.2529362533187722  0.4360187104034097
  0.4337423631732591  0.7529430586475385  0.4360193312644398
  0.3342487002880290  0.0026797467038762  0.4360602513266443
  0.3342462390036118  0.5026822786391421  0.4360666078001501
  0.3018263938192689  0.2565037827200669  0.4362840166473418
  0.3018282216504886  0.7564989478690478  0.4362706538515226
  0.4006135865110423  0.0034845424526821  0.4360363112067418
  0.4006117607256030  0.5034833076030267  0.4360333386852560
  0.3673295074398482  0.2530665363073297  0.4360174644199120
  0.3673330240353181  0.7530677470932119  0.4360152075968244
  0.4668236337361193  0.9970168263571750  0.5640235894195555
  0.4668220297279504  0.4970196746271043  0.5640241618168105
  0.4337412709391231  0.2470580134161082  0.5639795371724006
  0.4337403071110302  0.7470554063216355  0.5639803734452826
  0.3342456822850934  0.9973180965528954  0.5639369346819052
  0.3342461211521695  0.4973209660504097  0.5639360164387028
  0.3018246491277736  0.2434914052008850  0.5637265317313265
  0.3018276634139951  0.7435044973018634  0.5637214431208264
  0.4006107555378549  0.9965112212129128  0.5639630113623610
  0.4006111945976087  0.4965133985095846  0.5639635305618356
  0.3673277135964526  0.2469306322520097  0.5639822875524203
  0.3673308309900065  0.7469330022099072  0.5639820776313229
  0.4668222510476099  0.1697709113248820  0.4359706290859435
  0.4668199683895509  0.6697741221594455  0.4359701713402657
  0.4337385240132861  0.4199059485565471  0.4360128781287500
  0.4337384819964143  0.9199070743497444  0.4360108105734142
  0.3342555077050875  0.1704608849996845  0.4360626305400856
  0.3342576809431037  0.6704634326541097  0.4360563978193568
  0.3018125805519531  0.4166367332606242  0.4362448249340360
  0.3018141891386961  0.9166363135525870  0.4362313368478326
  0.4006107506671555  0.1695103331555785  0.4360139580390339
  0.4006112169209715  0.6695149252870181  0.4360163251868769
  0.3673246668426984  0.4200177383697792  0.4360177526203870
  0.3673276729693171  0.9200216964128529  0.4360151930276643
  0.3018121084023093  0.0833615549348465  0.5637628251761129
  0.3018113251545245  0.5833639094641683  0.5637633701749536
  0.4668203520916094  0.3302314551021226  0.5640286525765319
  0.4668190316258816  0.8302240135103602  0.5640305369130445
  0.3673245366548912  0.0799819071662924  0.5639820168457348
  0.3673248058113785  0.5799783214462337  0.5639815119418046
  0.3342531388873837  0.3295366717942088  0.5639404713535114
  0.3342558651850780  0.8295397866806127  0.5639417953328092
  0.4337371070709111  0.0800934532142676  0.5639885306657817
  0.4337371660194336  0.5800914290000847  0.5639861140618123
  0.4006078419489114  0.3304852653872530  0.5639844963353298
  0.4006098647396925  0.8304817421642952  0.5639810224948363
  0.5331779478143091  0.9970160260658503  0.5640249815950753
  0.5331768963544690  0.4970117382025734  0.5640227383757050
  0.5662591933506746  0.7470583064273626  0.5639808648904321
  0.5662587164374742  0.2470562196959278  0.5639802900645705
  0.6657502617556261  0.9973140371753360  0.5639411730306563
  0.6657524207264984  0.4973167513555410  0.5639352667000566
  0.6981729648437138  0.7434931542216745  0.5637228862524779
  0.6981732142516250  0.2434969885604232  0.5637286852813048
  0.4999996507736668  0.7467770894312622  0.5640224538407139
  0.4999994912470385  0.2467775086209230  0.5640232960196059
  0.5993862435049948  0.9965137915103313  0.5639634995032807
  0.5993872461290906  0.4965079747036398  0.5639654731102368
  0.6326677462089307  0.7469241248062275  0.5639842050553483
  0.6326691211713751  0.2469257612101146  0.5639851324947216
  0.5331779049629120  0.0029794546165149  0.4359758149083248
  0.5331790856324545  0.5029779453858865  0.4359762596027750
  0.5662612283024586  0.7529381114446920  0.4360196525746076
  0.5662604666377646  0.2529389526456001  0.4360185936091412
  0.6657540483277486  0.0026764502978480  0.4360618807669212
  0.6657533713916308  0.5026750292901099  0.4360620696149269
  0.6981749717420911  0.7565007529699059  0.4362708028927855
  0.6981744859452022  0.2564946669362911  0.4362790772284839
  0.5000016066842008  0.7532147685956474  0.4359763461884256
  0.5000016705545320  0.2532184414420868  0.4359789439791513
  0.5993887093576618  0.0034901727417918  0.4360354501543355
  0.5993884221802475  0.5034793104069095  0.4360342724565029
  0.6326703657746009  0.7530706817340942  0.4360157675658485
  0.6326708093208921  0.2530656411883072  0.4360163345147328
  0.5331801340171296  0.8302239776882914  0.5640303780759055
  0.5331797046757814  0.3302196646304267  0.5640294405976789
  0.5662625137194723  0.5800897952523982  0.5639866701424481
  0.5662622417679444  0.0800912024982026  0.5639889877850095
  0.6657423386001895  0.8295306541059801  0.5639409088890517
  0.6657433779009523  0.3295330480411565  0.5639439126239409
  0.6981879394893369  0.5833584400419127  0.5637624106846104
  0.6981874054643313  0.0833554693065324  0.5637687304953829
  0.4999996233778816  0.5804975071307155  0.5640347035228785
  0.5000005788936122  0.0804992873807109  0.5640316814403334
  0.5993898152421622  0.8304867347787237  0.5639850653317637
  0.5993911558346170  0.3304772564078817  0.5639843569852516
  0.6326723865771768  0.5799747454712190  0.5639825083697474
  0.6326716199613855  0.0799733795808137  0.5639848791745052
  0.6981897785478779  0.9166340657349252  0.4362347740352206
  0.6981896610101117  0.4166361301546502  0.4362349862862160
  0.5000006631959693  0.9194949403751949  0.4359682794743875
  0.5000017075408607  0.4195019231150283  0.4359658729026279
  0.5331821154893746  0.6697692071628012  0.4359704865886940
  0.5331815872684942  0.1697729400073271  0.4359699794268082
  0.6326741246915120  0.9200185778408567  0.4360156972188065
  0.6326745245101151  0.4200168073069221  0.4360162146146038
  0.6657445192628018  0.6704629937997666  0.4360580079994776
  0.6657454987491960  0.1704548887108572  0.4360572067171020
  0.5662633228303164  0.9199055967779515  0.4360107897055059
  0.5662632339735865  0.4199007204594096  0.4360131525615145
  0.5993927668230086  0.6695077293420155  0.4360144673371522
  0.5993929238214903  0.1695135975117950  0.4360162149090385
  0.7239170883332946  0.9771232092447590  0.4365262591518047
  0.7239191126619389  0.4771163962379603  0.4365320459128768
  0.7238804901434364  0.8041391741890820  0.5633537239683335
  0.7238813763041705  0.3041332577677096  0.5633655080510493
  0.7238819307889770  0.6958624686149548  0.4366360718954070
  0.7238821045776547  0.1958505413827609  0.4366453888796258
  0.7239154812103692  0.0228658989646675  0.5634800881722555
  0.7239166708527733  0.5228785025501423  0.5634640049206112
  0.2760864699694352  0.0228685469777545  0.5634699068025952
  0.2760840346044873  0.5228778870885833  0.5634664160008143
  0.2761200277306983  0.1958547439106013  0.4366604587291860
  0.2761222270039880  0.6958480960365208  0.4366320613033849
  0.2761183542336738  0.3041350531887730  0.5633581940528742
  0.2761208633538885  0.8041557093906135  0.5633547764499198
  0.2760876362230391  0.9771313245743585  0.4365193455495273
  0.2760850098362724  0.4771148822524438  0.4365488250455059
  0.1955299999999980  0.3312729613397849  0.4999888601036986

  0.00000000E+00  0.00000000E+00  0.00000000E+00
  0.00000000E+00  0.00000000E+00  0.00000000E+00
  0.00000000E+00  0.00000000E+00  0.00000000E+00
  0.00000000E+00  0.00000000E+00  0.00000000E+00
  0.00000000E+00  0.00000000E+00  0.00000000E+00
  0.00000000E+00  0.00000000E+00  0.00000000E+00
  0.00000000E+00  0.00000000E+00  0.00000000E+00
  0.00000000E+00  0.00000000E+00  0.00000000E+00
  0.00000000E+00  0.00000000E+00  0.00000000E+00
  0.00000000E+00  0.00000000E+00  0.00000000E+00
  0.00000000E+00  0.00000000E+00  0.00000000E+00
  0.00000000E+00  0.00000000E+00  0.00000000E+00
  0.00000000E+00  0.00000000E+00  0.00000000E+00
  0.00000000E+00  0.00000000E+00  0.00000000E+00
  0.00000000E+00  0.00000000E+00  0.00000000E+00
  0.00000000E+00  0.00000000E+00  0.00000000E+00
  0.00000000E+00  0.00000000E+00  0.00000000E+00
  0.00000000E+00  0.00000000E+00  0.00000000E+00
  0.00000000E+00  0.00000000E+00  0.00000000E+00
  0.00000000E+00  0.00000000E+00  0.00000000E+00
  0.00000000E+00  0.00000000E+00  0.00000000E+00
  0.00000000E+00  0.00000000E+00  0.00000000E+00
  0.00000000E+00  0.00000000E+00  0.00000000E+00
  0.00000000E+00  0.00000000E+00  0.00000000E+00
  0.00000000E+00  0.00000000E+00  0.00000000E+00
  0.00000000E+00  0.00000000E+00  0.00000000E+00
  0.00000000E+00  0.00000000E+00  0.00000000E+00
  0.00000000E+00  0.00000000E+00  0.00000000E+00
  0.00000000E+00  0.00000000E+00  0.00000000E+00
  0.00000000E+00  0.00000000E+00  0.00000000E+00
  0.00000000E+00  0.00000000E+00  0.00000000E+00
  0.00000000E+00  0.00000000E+00  0.00000000E+00
  0.00000000E+00  0.00000000E+00  0.00000000E+00
  0.00000000E+00  0.00000000E+00  0.00000000E+00
  0.00000000E+00  0.00000000E+00  0.00000000E+00
  0.00000000E+00  0.00000000E+00  0.00000000E+00
  0.00000000E+00  0.00000000E+00  0.00000000E+00
  0.00000000E+00  0.00000000E+00  0.00000000E+00
  0.00000000E+00  0.00000000E+00  0.00000000E+00
  0.00000000E+00  0.00000000E+00  0.00000000E+00
  0.00000000E+00  0.00000000E+00  0.00000000E+00
  0.00000000E+00  0.00000000E+00  0.00000000E+00
  0.00000000E+00  0.00000000E+00  0.00000000E+00
  0.00000000E+00  0.00000000E+00  0.00000000E+00
  0.00000000E+00  0.00000000E+00  0.00000000E+00
  0.00000000E+00  0.00000000E+00  0.00000000E+00
  0.00000000E+00  0.00000000E+00  0.00000000E+00
  0.00000000E+00  0.00000000E+00  0.00000000E+00
  0.00000000E+00  0.00000000E+00  0.00000000E+00
  0.00000000E+00  0.00000000E+00  0.00000000E+00
  0.00000000E+00  0.00000000E+00  0.00000000E+00
  0.00000000E+00  0.00000000E+00  0.00000000E+00
  0.00000000E+00  0.00000000E+00  0.00000000E+00
  0.00000000E+00  0.00000000E+00  0.00000000E+00
  0.00000000E+00  0.00000000E+00  0.00000000E+00
  0.00000000E+00  0.00000000E+00  0.00000000E+00
  0.00000000E+00  0.00000000E+00  0.00000000E+00
  0.00000000E+00  0.00000000E+00  0.00000000E+00
  0.00000000E+00  0.00000000E+00  0.00000000E+00
  0.00000000E+00  0.00000000E+00  0.00000000E+00
  0.00000000E+00  0.00000000E+00  0.00000000E+00
  0.00000000E+00  0.00000000E+00  0.00000000E+00
  0.00000000E+00  0.00000000E+00  0.00000000E+00
  0.00000000E+00  0.00000000E+00  0.00000000E+00
  0.00000000E+00  0.00000000E+00  0.00000000E+00
  0.00000000E+00  0.00000000E+00  0.00000000E+00
  0.00000000E+00  0.00000000E+00  0.00000000E+00
  0.00000000E+00  0.00000000E+00  0.00000000E+00
  0.00000000E+00  0.00000000E+00  0.00000000E+00
  0.00000000E+00  0.00000000E+00  0.00000000E+00
  0.00000000E+00  0.00000000E+00  0.00000000E+00
  0.00000000E+00  0.00000000E+00  0.00000000E+00
  0.00000000E+00  0.00000000E+00  0.00000000E+00
  0.00000000E+00  0.00000000E+00  0.00000000E+00
  0.00000000E+00  0.00000000E+00  0.00000000E+00
  0.00000000E+00  0.00000000E+00  0.00000000E+00
  0.00000000E+00  0.00000000E+00  0.00000000E+00
  0.00000000E+00  0.00000000E+00  0.00000000E+00
  0.00000000E+00  0.00000000E+00  0.00000000E+00
  0.00000000E+00  0.00000000E+00  0.00000000E+00
  0.00000000E+00  0.00000000E+00  0.00000000E+00
  0.00000000E+00  0.00000000E+00  0.00000000E+00
  0.00000000E+00  0.00000000E+00  0.00000000E+00
  0.00000000E+00  0.00000000E+00  0.00000000E+00
  0.00000000E+00  0.00000000E+00  0.00000000E+00
  0.00000000E+00  0.00000000E+00  0.00000000E+00
  0.00000000E+00  0.00000000E+00  0.00000000E+00
  0.00000000E+00  0.00000000E+00  0.00000000E+00
  0.00000000E+00  0.00000000E+00  0.00000000E+00
  0.00000000E+00  0.00000000E+00  0.00000000E+00
  0.00000000E+00  0.00000000E+00  0.00000000E+00
  0.00000000E+00  0.00000000E+00  0.00000000E+00
  0.00000000E+00  0.00000000E+00  0.00000000E+00
  0.00000000E+00  0.00000000E+00  0.00000000E+00
  0.00000000E+00  0.00000000E+00  0.00000000E+00
  0.00000000E+00  0.00000000E+00  0.00000000E+00
  0.00000000E+00  0.00000000E+00  0.00000000E+00
  0.00000000E+00  0.00000000E+00  0.00000000E+00
  0.00000000E+00  0.00000000E+00  0.00000000E+00
  0.00000000E+00  0.00000000E+00  0.00000000E+00
  0.00000000E+00  0.00000000E+00  0.00000000E+00
  0.00000000E+00  0.00000000E+00  0.00000000E+00
  0.00000000E+00  0.00000000E+00  0.00000000E+00
  0.00000000E+00  0.00000000E+00  0.00000000E+00
  0.00000000E+00  0.00000000E+00  0.00000000E+00
  0.00000000E+00  0.00000000E+00  0.00000000E+00
  0.00000000E+00  0.00000000E+00  0.00000000E+00
  0.00000000E+00  0.00000000E+00  0.00000000E+00
  0.00000000E+00  0.00000000E+00  0.00000000E+00
  0.00000000E+00  0.00000000E+00  0.00000000E+00
  0.00000000E+00  0.00000000E+00  0.00000000E+00
  0.00000000E+00  0.00000000E+00  0.00000000E+00
  0.00000000E+00  0.00000000E+00  0.00000000E+00
  0.00000000E+00  0.00000000E+00  0.00000000E+00
  0.00000000E+00  0.00000000E+00  0.00000000E+00
  0.00000000E+00  0.00000000E+00  0.00000000E+00
  0.00000000E+00  0.00000000E+00  0.00000000E+00
  0.00000000E+00  0.00000000E+00  0.00000000E+00
  0.00000000E+00  0.00000000E+00  0.00000000E+00
  0.00000000E+00  0.00000000E+00  0.00000000E+00
  0.00000000E+00  0.00000000E+00  0.00000000E+00
