C    H    Li                            
   1.0000000000000000     
    37.2234382628999967    0.0000000000000000    0.0000000000000000
     0.0000000000000000    8.5469398498999993    0.0000000000000000
     0.0000000000000000    0.0000000000000000   27.8030738831000015
   C    H    Li
   104    16     1
Direct
  0.4667996370625314  0.0035308731947338  0.4360304884865651
  0.4667997805288621  0.5035314421283033  0.4360300593325649
  0.4337181728389989  0.2534952053450016  0.4360123465309984
  0.4337182629249098  0.7534941658949017  0.4360153553596061
  0.3342197545502532  0.0032158762464683  0.4360888925250295
  0.3342145083955060  0.5032228623104050  0.4361015906873752
  0.3017883989553248  0.2570640861504585  0.4364033332371368
  0.3017947720325881  0.7570558041546213  0.4363328006342460
  0.4005879010792107  0.0040380907896372  0.4360023357245708
  0.4005853476967788  0.5040292680218496  0.4359999444566595
  0.3672969802132250  0.2536034466611020  0.4359983457464321
  0.3673040562069441  0.7536045038453838  0.4359944059489851
  0.4667961067279589  0.9964599627855502  0.5639677251087047
  0.4667969356571847  0.4964603288290291  0.5639665575181475
  0.4337153493941124  0.2464980969812355  0.5639839759684013
  0.4337151306431887  0.7464954532445969  0.5639841622587106
  0.3342143921348537  0.9967728428990775  0.5639131257323912
  0.3342135862716231  0.4967726700748057  0.5638973147963170
  0.3017850184501825  0.2429380181670643  0.5636171383671995
  0.3017913019111084  0.7429246686201759  0.5636492490868452
  0.4005839592272745  0.9959602151610866  0.5640004029772027
  0.4005834762971210  0.4959552653388135  0.5639954484517105
  0.3672947984568633  0.2463886190988349  0.5640003071969343
  0.3673003865348603  0.7463862688019252  0.5640065703995740
  0.4667976129426807  0.1703315959476770  0.4360235062870127
  0.4667973141547869  0.6703321616385599  0.4360247795808561
  0.4337161039193248  0.4204654322000184  0.4360035499913665
  0.4337162279374431  0.9204667835241197  0.4360064487595793
  0.3342211277050684  0.1710001173314034  0.4360951465618474
  0.3342279491563596  0.6710061968577092  0.4360810407181553
  0.3017765816895956  0.4171839315816940  0.4363597018744836
  0.3017816968646824  0.9171838287651798  0.4362928820422431
  0.4005839330728441  0.1700642932805800  0.4359846573962141
  0.4005866982817998  0.6700557982072346  0.4359862013140500
  0.3672938560454818  0.4205562284171569  0.4359976530977034
  0.3673003246014627  0.9205573193016446  0.4359940814206479
  0.3017755511470516  0.0828164008941307  0.5636710490228081
  0.3017731834980874  0.5827994743979266  0.5636763824749068
  0.4667950548449454  0.3296594026083230  0.5639731553507126
  0.4667939050835860  0.8296592263475790  0.5639734392794352
  0.3672932284030632  0.0794356532278801  0.5640067589850184
  0.3672936904665163  0.5794334748751875  0.5640019214441623
  0.3342176180456763  0.3289921822047133  0.5639020852498599
  0.3342233450928361  0.8289848905820137  0.5639229693708874
  0.4337125152096425  0.0795272180054611  0.5639938923794461
  0.4337126652486049  0.5795233467377490  0.5639923218110413
  0.4005800944328586  0.3299298083400519  0.5640105207527822
  0.4005829828160883  0.8299328199862686  0.5640152327631841
  0.5331503952479051  0.9964582476005769  0.5639681707352520
  0.5331498398820914  0.4964591036333835  0.5639676191067751
  0.5662315646010480  0.7464902618594801  0.5639794211550097
  0.5662304489708813  0.2464917549173204  0.5639794531232249
  0.6657228855332477  0.9967638836012268  0.5639328793439158
  0.6657236973728361  0.4967646113069891  0.5639318604971013
  0.6981473822505604  0.7429290106189314  0.5636966139652686
  0.6981481915919276  0.2429274057799714  0.5637066627283237
  0.4999736269529168  0.7462226811533689  0.5639490874054297
  0.4999735533910438  0.2462200803784848  0.5639493577273775
  0.5993596783609439  0.9959508073637237  0.5639908882916663
  0.5993599179831192  0.4959487159104153  0.5639912278838476
  0.6326423389555536  0.7463762109476719  0.5640091728063441
  0.6326438985846671  0.2463772948726073  0.5640106125628196
  0.5331535915432840  0.0035324594899170  0.4360304898236575
  0.5331527185491727  0.5035335757005573  0.4360307770997747
  0.5662346939740592  0.7535009108506470  0.4360201979227505
  0.5662334845927486  0.2535011703943678  0.4360200367295679
  0.6657258470941591  0.0032286568687604  0.4360686709994911
  0.6657267934433576  0.5032297789193586  0.4360694053220872
  0.6981502725173910  0.7570654996473025  0.4362988132509013
  0.6981514042655033  0.2570660993208969  0.4363042507256482
  0.4999767990739482  0.7537700557288471  0.4360487742381265
  0.4999765053540225  0.2537698966689411  0.4360482772073883
  0.5993627560904484  0.0040445231951187  0.4360096265527271
  0.5993629426977178  0.5040410149878671  0.4360092455211094
  0.6326452737798838  0.7536162267358888  0.4359907746628857
  0.6326469913308621  0.2536161909533660  0.4359913228244470
  0.5331538988032686  0.8296580793889378  0.5639737377648693
  0.5331524854867684  0.3296584188202624  0.5639735685040691
  0.5662327248818426  0.5795196176688362  0.5639885899451667
  0.5662326564668544  0.0795214118243888  0.5639886410377071
  0.6657156549453783  0.8289788923953267  0.5639387205561901
  0.6657172627514051  0.3289796790198792  0.5639419964127648
  0.6981617343170684  0.5828032001886960  0.5637352729190421
  0.6981611729526465  0.0828020502270453  0.5637431589511956
  0.4999733248590654  0.5799394297551828  0.5639632686380163
  0.4999731867956055  0.0799365017600511  0.5639641986650064
  0.5993619827200379  0.8299259340502723  0.5640067676820175
  0.5993623737931728  0.3299247903581207  0.5640070768759348
  0.6326475532619317  0.5794267983171332  0.5640099344659045
  0.6326473926181400  0.0794280765031253  0.5640105815335369
  0.6981638575073729  0.9171908809796863  0.4362606238784973
  0.6981648808961324  0.4171924097745605  0.4362657035134107
  0.4999764540054944  0.9200528677990961  0.4360342531684869
  0.4999761039567371  0.4200535191969749  0.4360340878400765
  0.5331565947732388  0.6703339246348676  0.4360249066101765
  0.5331556553295685  0.1703327760439733  0.4360247201125592
  0.6326497340872298  0.9205657985145090  0.4359906898679204
  0.6326512692128351  0.4205651921483556  0.4359908440079255
  0.6657186663065588  0.6710146710220666  0.4360603917454210
  0.6657200152422115  0.1710137728173877  0.4360618942674189
  0.5662359685428746  0.9204716990984015  0.4360110386696039
  0.5662347581349320  0.4204713507575188  0.4360108936120401
  0.5993648783958663  0.6700654598610828  0.4359934742109596
  0.5993651536944572  0.1700687331434234  0.4359935122546207
  0.7238872657136683  0.9777085403678069  0.4365503467472427
  0.7238885442240068  0.4777081157716037  0.4365581612563724
  0.7238577886854128  0.8035341592983281  0.5633362611192552
  0.7238593511921327  0.3035268559776769  0.5633495278171889
  0.7238609700828954  0.6964627562121533  0.4366548849242551
  0.7238622350801261  0.1964647500749953  0.4366649236055271
  0.7238846780409282  0.0222847158739578  0.5634532908100890
  0.7238855210221966  0.5222885094481736  0.5634422206468971
  0.2760441472998528  0.0223345972874252  0.5633278889712084
  0.2760411222326451  0.5222867080476332  0.5633294424641532
  0.2760608396525631  0.1965331277351603  0.4368566665683720
  0.2760858660709157  0.6964206386677735  0.4367069253181187
  0.2760572902675847  0.3034918838092573  0.5631769983575141
  0.2760814783763435  0.8035485340841131  0.5632678332641634
  0.2760581498063941  0.9777270097002531  0.4365994069397408
  0.2760353988535781  0.4776275826321829  0.4367443345539659
  0.1659676333766330  0.3314682167957632  0.4999866587545868

             NaN             NaN             NaN
             NaN             NaN             NaN
             NaN             NaN             NaN
             NaN             NaN             NaN
             NaN             NaN             NaN
             NaN             NaN             NaN
             NaN             NaN             NaN
             NaN             NaN             NaN
             NaN             NaN             NaN
             NaN             NaN             NaN
             NaN             NaN             NaN
             NaN             NaN             NaN
             NaN             NaN             NaN
             NaN             NaN             NaN
             NaN             NaN             NaN
             NaN             NaN             NaN
             NaN             NaN             NaN
             NaN             NaN             NaN
             NaN             NaN             NaN
             NaN             NaN             NaN
             NaN             NaN             NaN
             NaN             NaN             NaN
             NaN             NaN             NaN
             NaN             NaN             NaN
             NaN             NaN             NaN
             NaN             NaN             NaN
             NaN             NaN             NaN
             NaN             NaN             NaN
             NaN             NaN             NaN
             NaN             NaN             NaN
             NaN             NaN             NaN
             NaN             NaN             NaN
             NaN             NaN             NaN
             NaN             NaN             NaN
             NaN             NaN             NaN
             NaN             NaN             NaN
             NaN             NaN             NaN
             NaN             NaN             NaN
             NaN             NaN             NaN
             NaN             NaN             NaN
             NaN             NaN             NaN
             NaN             NaN             NaN
             NaN             NaN             NaN
             NaN             NaN             NaN
             NaN             NaN             NaN
             NaN             NaN             NaN
             NaN             NaN             NaN
             NaN             NaN             NaN
             NaN             NaN             NaN
             NaN             NaN             NaN
             NaN             NaN             NaN
             NaN             NaN             NaN
             NaN             NaN             NaN
             NaN             NaN             NaN
             NaN             NaN             NaN
             NaN             NaN             NaN
             NaN             NaN             NaN
             NaN             NaN             NaN
             NaN             NaN             NaN
             NaN             NaN             NaN
             NaN             NaN             NaN
             NaN             NaN             NaN
             NaN             NaN             NaN
             NaN             NaN             NaN
             NaN             NaN             NaN
             NaN             NaN             NaN
             NaN             NaN             NaN
             NaN             NaN             NaN
             NaN             NaN             NaN
             NaN             NaN             NaN
             NaN             NaN             NaN
             NaN             NaN             NaN
             NaN             NaN             NaN
             NaN             NaN             NaN
             NaN             NaN             NaN
             NaN             NaN             NaN
             NaN             NaN             NaN
             NaN             NaN             NaN
             NaN             NaN             NaN
             NaN             NaN             NaN
             NaN             NaN             NaN
             NaN             NaN             NaN
             NaN             NaN             NaN
             NaN             NaN             NaN
             NaN             NaN             NaN
             NaN             NaN             NaN
             NaN             NaN             NaN
             NaN             NaN             NaN
             NaN             NaN             NaN
             NaN             NaN             NaN
             NaN             NaN             NaN
             NaN             NaN             NaN
             NaN             NaN             NaN
             NaN             NaN             NaN
             NaN             NaN             NaN
             NaN             NaN             NaN
             NaN             NaN             NaN
             NaN             NaN             NaN
             NaN             NaN             NaN
             NaN             NaN             NaN
             NaN             NaN             NaN
             NaN             NaN             NaN
             NaN             NaN             NaN
             NaN             NaN             NaN
             NaN             NaN             NaN
             NaN             NaN             NaN
             NaN             NaN             NaN
             NaN             NaN             NaN
             NaN             NaN             NaN
             NaN             NaN             NaN
             NaN             NaN             NaN
             NaN             NaN             NaN
             NaN             NaN             NaN
             NaN             NaN             NaN
             NaN             NaN             NaN
             NaN             NaN             NaN
             NaN             NaN             NaN
             NaN             NaN             NaN
             NaN             NaN             NaN
             NaN             NaN             NaN
             NaN             NaN             NaN
