C    H    Li
   1.0000000000000000     
  37.2234382628999967   0.0000000000000000   0.0000000000000000
   0.0000000000000000   8.5469398498999993   0.0000000000000000
   0.0000000000000000   0.0000000000000000  27.8030738831000015
C    H    Li
104  16  1  
Direct
  0.4668232022715980  0.0029747182804058  0.4359748556847260  
  0.4668244089793990  0.5029809176602530  0.4359778575080360  
  0.4337423102333770  0.2529362533187720  0.4360187104034100  
  0.4337423631732590  0.7529430586475390  0.4360193312644400  
  0.3342487002880290  0.0026797467038762  0.4360602513266440  
  0.3342462390036120  0.5026822786391421  0.4360666078001500  
  0.3018263938192690  0.2565037827200670  0.4362840166473420  
  0.3018282216504890  0.7564989478690480  0.4362706538515230  
  0.4006135865110420  0.0034845424526822  0.4360363112067420  
  0.4006117607256030  0.5034833076030270  0.4360333386852560  
  0.3673295074398480  0.2530665363073300  0.4360174644199120  
  0.3673330240353180  0.7530677470932120  0.4360152075968240  
  0.4668236337361190  0.9970168263571750  0.5640235894195560  
  0.4668220297279500  0.4970196746271040  0.5640241618168100  
  0.4337412709391230  0.2470580134161080  0.5639795371724010  
  0.4337403071110300  0.7470554063216350  0.5639803734452830  
  0.3342456822850930  0.9973180965528951  0.5639369346819050  
  0.3342461211521690  0.4973209660504100  0.5639360164387029  
  0.3018246491277740  0.2434914052008850  0.5637265317313260  
  0.3018276634139950  0.7435044973018630  0.5637214431208259  
  0.4006107555378550  0.9965112212129130  0.5639630113623610  
  0.4006111945976090  0.4965133985095850  0.5639635305618360  
  0.3673277135964530  0.2469306322520100  0.5639822875524200  
  0.3673308309900070  0.7469330022099070  0.5639820776313230  
  0.4668222510476100  0.1697709113248820  0.4359706290859440  
  0.4668199683895510  0.6697741221594460  0.4359701713402660  
  0.4337385240132860  0.4199059485565470  0.4360128781287500  
  0.4337384819964140  0.9199070743497439  0.4360108105734140  
  0.3342555077050870  0.1704608849996840  0.4360626305400860  
  0.3342576809431040  0.6704634326541100  0.4360563978193570  
  0.3018125805519530  0.4166367332606240  0.4362448249340360  
  0.3018141891386960  0.9166363135525870  0.4362313368478330  
  0.4006107506671550  0.1695103331555790  0.4360139580390340  
  0.4006112169209710  0.6695149252870179  0.4360163251868770  
  0.3673246668426980  0.4200177383697790  0.4360177526203870  
  0.3673276729693170  0.9200216964128530  0.4360151930276640  
  0.3018121084023090  0.0833615549348465  0.5637628251761130  
  0.3018113251545240  0.5833639094641681  0.5637633701749540  
  0.4668203520916090  0.3302314551021230  0.5640286525765320  
  0.4668190316258820  0.8302240135103600  0.5640305369130451  
  0.3673245366548910  0.0799819071662924  0.5639820168457350  
  0.3673248058113780  0.5799783214462340  0.5639815119418050  
  0.3342531388873840  0.3295366717942090  0.5639404713535110  
  0.3342558651850780  0.8295397866806130  0.5639417953328090  
  0.4337371070709110  0.0800934532142676  0.5639885306657820  
  0.4337371660194340  0.5800914290000850  0.5639861140618120  
  0.4006078419489110  0.3304852653872530  0.5639844963353300  
  0.4006098647396930  0.8304817421642950  0.5639810224948359  
  0.5331779478143091  0.9970160260658500  0.5640249815950750  
  0.5331768963544690  0.4970117382025730  0.5640227383757050  
  0.5662591933506750  0.7470583064273630  0.5639808648904320  
  0.5662587164374741  0.2470562196959280  0.5639802900645710  
  0.6657502617556260  0.9973140371753360  0.5639411730306561  
  0.6657524207264980  0.4973167513555410  0.5639352667000570  
  0.6981729648437141  0.7434931542216749  0.5637228862524780  
  0.6981732142516250  0.2434969885604230  0.5637286852813050  
  0.4999996507736670  0.7467770894312620  0.5640224538407140  
  0.4999994912470380  0.2467775086209230  0.5640232960196060  
  0.5993862435049950  0.9965137915103310  0.5639634995032810  
  0.5993872461290910  0.4965079747036400  0.5639654731102370  
  0.6326677462089310  0.7469241248062271  0.5639842050553480  
  0.6326691211713750  0.2469257612101150  0.5639851324947220  
  0.5331779049629120  0.0029794546165149  0.4359758149083250  
  0.5331790856324550  0.5029779453858860  0.4359762596027750  
  0.5662612283024590  0.7529381114446920  0.4360196525746080  
  0.5662604666377650  0.2529389526456000  0.4360185936091410  
  0.6657540483277490  0.0026764502978480  0.4360618807669210  
  0.6657533713916310  0.5026750292901100  0.4360620696149270  
  0.6981749717420910  0.7565007529699060  0.4362708028927860  
  0.6981744859452020  0.2564946669362910  0.4362790772284840  
  0.5000016066842010  0.7532147685956470  0.4359763461884260  
  0.5000016705545320  0.2532184414420870  0.4359789439791510  
  0.5993887093576620  0.0034901727417918  0.4360354501543360  
  0.5993884221802470  0.5034793104069100  0.4360342724565030  
  0.6326703657746010  0.7530706817340940  0.4360157675658480  
  0.6326708093208920  0.2530656411883070  0.4360163345147330  
  0.5331801340171300  0.8302239776882910  0.5640303780759059  
  0.5331797046757810  0.3302196646304270  0.5640294405976790  
  0.5662625137194720  0.5800897952523980  0.5639866701424480  
  0.5662622417679440  0.0800912024982026  0.5639889877850091  
  0.6657423386001891  0.8295306541059800  0.5639409088890520  
  0.6657433779009519  0.3295330480411560  0.5639439126239409  
  0.6981879394893370  0.5833584400419130  0.5637624106846100  
  0.6981874054643310  0.0833554693065324  0.5637687304953830  
  0.4999996233778820  0.5804975071307150  0.5640347035228790  
  0.5000005788936120  0.0804992873807109  0.5640316814403330  
  0.5993898152421619  0.8304867347787240  0.5639850653317640  
  0.5993911558346170  0.3304772564078820  0.5639843569852520  
  0.6326723865771769  0.5799747454712190  0.5639825083697469  
  0.6326716199613860  0.0799733795808137  0.5639848791745050  
  0.6981897785478780  0.9166340657349250  0.4362347740352210  
  0.6981896610101120  0.4166361301546500  0.4362349862862160  
  0.5000006631959690  0.9194949403751950  0.4359682794743880  
  0.5000017075408610  0.4195019231150280  0.4359658729026280  
  0.5331821154893750  0.6697692071628010  0.4359704865886940  
  0.5331815872684940  0.1697729400073270  0.4359699794268080  
  0.6326741246915120  0.9200185778408571  0.4360156972188070  
  0.6326745245101150  0.4200168073069220  0.4360162146146040  
  0.6657445192628020  0.6704629937997670  0.4360580079994780  
  0.6657454987491960  0.1704548887108570  0.4360572067171020  
  0.5662633228303160  0.9199055967779510  0.4360107897055060  
  0.5662632339735860  0.4199007204594100  0.4360131525615150  
  0.5993927668230090  0.6695077293420160  0.4360144673371520  
  0.5993929238214900  0.1695135975117950  0.4360162149090390  
  0.7239170883332950  0.9771232092447590  0.4365262591518050  
  0.7239191126619390  0.4771163962379600  0.4365320459128770  
  0.7238804901434360  0.8041391741890820  0.5633537239683331  
  0.7238813763041700  0.3041332577677100  0.5633655080510490  
  0.7238819307889770  0.6958624686149550  0.4366360718954070  
  0.7238821045776550  0.1958505413827610  0.4366453888796260  
  0.7239154812103690  0.0228658989646675  0.5634800881722550  
  0.7239166708527730  0.5228785025501420  0.5634640049206110  
  0.2760864699694350  0.0228685469777545  0.5634699068025950  
  0.2760840346044870  0.5228778870885830  0.5634664160008140  
  0.2761200277306980  0.1958547439106010  0.4366604587291860  
  0.2761222270039880  0.6958480960365210  0.4366320613033850  
  0.2761183542336740  0.3041350531887730  0.5633581940528740  
  0.2761208633538890  0.8041557093906140  0.5633547764499200  
  0.2760876362230390  0.9771313245743580  0.4365193455495270  
  0.2760850098362720  0.4771148822524440  0.4365488250455060  
  0.1686630150599980  0.3312729613397850  0.4999888601036990  
