C    H    Li
   1.0000000000000000     
  37.0938796996999969   0.0000000000000000   0.0000000000000000
   0.0000000000000000   7.3546423911999996   0.0000000000000000
   0.0000000000000000   0.0000000000000000  27.8030738831000015
C    H    Li
108  12  1  
Direct
  0.4996230220243945  0.8333459572111437  0.4366253530072512  
  0.7306613365715933  0.8333161023293059  0.5633951490125781  
  0.3842324693536341  0.8333467663472618  0.4362572529969171  
  0.6150570144990226  0.8333518734626040  0.4367451515841410  
  0.4419256862309382  0.6666933026978370  0.4365021051074862  
  0.6728300711229451  0.6666889565441068  0.4365395793323756  
  0.3265451037928315  0.6666921665489483  0.4361674611267432  
  0.5573314242114051  0.6666999866664440  0.4367291279519918  
  0.4996226842516904  0.1667087726649115  0.4366259378926358  
  0.7306611298784631  0.1666207089936051  0.5633947582047014  
  0.3842322586639639  0.1666933503998962  0.4362575040495571  
  0.6150569974417834  0.1667054451354346  0.4367460500915996  
  0.4419271020595588  0.0000192038523039  0.4364726406258015  
  0.6728263349899350  0.0000214552667686  0.4365269427375864  
  0.3265554778749049  0.0000183714091193  0.4361607967652432  
  0.5573302055544360  0.0000221239711493  0.4366988401926619  
  0.4996232123719793  0.5000217037035668  0.4366555974864710  
  0.7306708831420394  0.4999689191110264  0.5634008250641500  
  0.3842262110530754  0.5000191334455195  0.4362811963623940  
  0.6150596606458976  0.5000270093230270  0.4367657489188232  
  0.4419263431644040  0.3333500751130813  0.4365030301980468  
  0.6728309739088161  0.3333664319495284  0.4365402146364161  
  0.3265450710405986  0.3333449900336660  0.4361670170232514  
  0.5573315618363637  0.3333432086591159  0.4367280806355112  
  0.2692294597468319  0.8333607950733963  0.4365358081694879  
  0.5002568818529554  0.8332778150219866  0.5632983149536059  
  0.3848157278223070  0.8332993590962730  0.5632915719169134  
  0.6156532235475609  0.8332984999089632  0.5636292204623032  
  0.4425434536151442  0.6666361839264212  0.5632130226781058  
  0.6733444686635082  0.6666433963500680  0.5637530742220349  
  0.3270445023495085  0.6666363564059026  0.5635528516101118  
  0.5579580110975897  0.6666435169596951  0.5634219713954067  
  0.2692283650931486  0.1666752108439269  0.4365373423833034  
  0.5002566288577768  0.1666438917706046  0.5632986869143863  
  0.3848158327281652  0.1666399914952521  0.5632930457259420  
  0.6156529954649201  0.1666462496222323  0.5636293502702969  
  0.4425452611486094  0.9999667631534664  0.5632449056410636  
  0.6733313817011961  0.9999730721912670  0.5637593843808304  
  0.3270483923807177  0.9999722481896852  0.5635695344165725  
  0.5579570668843417  0.9999719674322876  0.5634498258468810  
  0.2692177869644539  0.5000191910437692  0.4365301634223826  
  0.5002548798231174  0.4999608863563338  0.5632728240209133  
  0.3848150051829791  0.4999661056403042  0.5632746934391264  
  0.6156571117134959  0.4999752015739318  0.5636173792187620  
  0.4425440150451792  0.3332909595022855  0.5632124729060095  
  0.6733441750710583  0.3333022342186709  0.5637531481013411  
  0.3270438387619308  0.3333142635037589  0.5635535551452620  
  0.5579583197790612  0.3333008445431105  0.5634216571213599  
  0.4611551056621792  0.8333492455308829  0.4365342714408555  
  0.6919620689746964  0.8333537885868481  0.4363890784300821  
  0.3456775063561679  0.8333432342290195  0.4361539891812996  
  0.5765644067574982  0.8333567226711196  0.4367270790528295  
  0.4034388882665212  0.6666894868815945  0.4363394090959005  
  0.6342694067541714  0.6666939688989473  0.4367168821143039  
  0.2876725069791561  0.6666770249959129  0.4363310206890034  
  0.5188600973178126  0.6666932600465216  0.4366616103681622  
  0.4611549815860485  0.1666917935938628  0.4365354969628896  
  0.6919619185352275  0.1666927467252322  0.4363894083043434  
  0.3456776518747233  0.1666959456955155  0.4361552940051254  
  0.5765633598114732  0.1666920152294580  0.4367269826094216  
  0.4034403398441597  0.0000251447215120  0.4363084893591420  
  0.6342655011528464  0.0000256644460706  0.4367009402167241  
  0.2876846242456423  0.0000193439944738  0.4363259458673028  
  0.5188575691151343  0.0000293986299553  0.4366311429466236  
  0.4611543855894809  0.5000225297004164  0.4365631529918659  
  0.6919686007927268  0.5000289696108453  0.4363945456705594  
  0.3456716019601842  0.5000159892048472  0.4361605081759024  
  0.5765655393080920  0.5000229110710350  0.4367453688809775  
  0.4034390846417040  0.3333518792737635  0.4363391082295323  
  0.6342696458983497  0.3333615687616671  0.4367169765267462  
  0.2876721660019683  0.3333583246194038  0.4363317170530365  
  0.5188609888579876  0.3333579662306292  0.4366616104669561  
  0.4810227252823154  0.9999623597209748  0.5632896608481772  
  0.7122035680675438  0.9999713612393960  0.5636072342332952  
  0.3656054495170977  0.9999656864788946  0.5633704847623378  
  0.5964455315469621  0.9999725225736142  0.5635849424391282  
  0.4233098341530592  0.8332965412236319  0.5632396631478755  
  0.6542110032783341  0.8332954955262792  0.5637565956200703  
  0.3079133022395766  0.8333067271493064  0.5637206133292949  
  0.5387282304155008  0.8333005354197738  0.5633997378627029  
  0.4810172190087201  0.3332940068152865  0.5632589256346705  
  0.7122170666460690  0.3333094736423519  0.5635997125778403  
  0.3656026290578893  0.3333032216433196  0.5633455243232888  
  0.5964425560666200  0.3333027853080353  0.5635574880762988  
  0.4233099609008022  0.1666373248573549  0.5632402107941488  
  0.6542110461855373  0.1666508603584376  0.5637565639094078  
  0.3079134945090800  0.1666402651057197  0.5637205066901103  
  0.5387278811433731  0.1666417094091557  0.5633999164090184  
  0.4810175404714130  0.6666287977333170  0.5632589333809719  
  0.7122182318571504  0.6666327572051003  0.5636000112168063  
  0.3656025779535383  0.6666372436280383  0.5633457137224980  
  0.5964431974596849  0.6666400594905042  0.5635573368329077  
  0.4233113721253545  0.4999659813954906  0.5632203990921383  
  0.6542164443225218  0.4999729046195185  0.5637498613341663  
  0.3079059210095281  0.4999760821535943  0.5637093192594662  
  0.5387276208134253  0.4999722892425353  0.5633760513884738  
  0.2690363756902201  0.8332974758829934  0.5640512767750536  
  0.2690237634108499  0.4999708476480862  0.5640388612317864  
  0.2690374805517024  0.1666365294770031  0.5640511383884714  
  0.7308404617999003  0.8333476440922425  0.4361370479309272  
  0.7308528335836613  0.5000187939157854  0.4361554437320052  
  0.7308402092627588  0.1666927817891946  0.4361373693135988  
  0.2505709260818705  0.6666537857330823  0.5642059578672374  
  0.2505726181653998  0.3332794566173547  0.5642062157325753  
  0.2505798553005647  0.9999719060782796  0.5642189130130575  
  0.7493013301674409  0.0000252464330543  0.4360419664468438  
  0.7493100703301820  0.3333398311557971  0.4360480300825529  
  0.7493106721477005  0.6666988380097720  0.4360483199533647  
  0.2397597828576963  0.8334816702189514  0.4370672939481963  
  0.2397491754738255  0.5000199160760843  0.4370666616158161  
  0.2397591337438243  0.1665544641853742  0.4370680595165908  
  0.7601302033135937  0.8334232357483486  0.5628712098177076  
  0.7601409468735341  0.4999693622224086  0.5628759371641792  
  0.7601304992152080  0.1665157252957528  0.5628710893543598  
  0.2210975372386130  0.6667400199772970  0.5644577739721015  
  0.2211008845558879  0.3332072233924421  0.5644579375102055  
  0.2211027105617660  0.9999750811143144  0.5644449594552441  
  0.7787784316685702  0.0000186414602723  0.4359271370435067  
  0.7787810256942578  0.3332613990928479  0.4359112188631897  
  0.7787831941234273  0.6667710441675538  0.4359117313162315  
  0.0863068740000017  0.3328724480372003  0.5001593669007320  
