C4                                      
   1.0000000000000000     
    37.2234382628999967    0.0000000000000000    0.0000000000000000
     0.0000000000000000    8.5469398498999993    0.0000000000000000
     0.0000000000000000    0.0000000000000000   27.8030738831000015
   C    H    Li
   104    16     1
Direct
  0.4669150622336957  0.0041150284722491  0.4354606008156026
  0.4669549628592549  0.5041073975657611  0.4355078139611450
  0.4338104111081691  0.2540688052476483  0.4345799068714342
  0.4337426741975179  0.7540208993895021  0.4347623096474180
  0.3341263970874522  0.0028528206103502  0.4326579630478520
  0.3341625058560354  0.5046109235161254  0.4305511570250218
  0.3016664811920435  0.2567019493609308  0.4276734368282433
  0.3016872198963512  0.7572431491234681  0.4343162737399311
  0.4006807822315963  0.0039698335175871  0.4337947441871250
  0.4007754698944765  0.5043907401734486  0.4334861581606546
  0.3675341745549119  0.2536578420963878  0.4314790646900164
  0.3673948474667341  0.7540613450203182  0.4333311904187056
  0.4669588216035194  0.9958678692371805  0.5644091415803700
  0.4669530604942054  0.4958361034640930  0.5647602025160481
  0.4338524774444892  0.2458574450056972  0.5657175864474056
  0.4338024268437692  0.7459210562983358  0.5651326022982488
  0.3342515206008088  0.9958970147656103  0.5676022066533406
  0.3342386999536089  0.4968587818876173  0.5695588597647188
  0.3017058894372724  0.2421240116221171  0.5718273484062522
  0.3017893951015509  0.7427466889340337  0.5661602849864238
  0.4007461106874288  0.9956667291869934  0.5660070321918056
  0.4007635633610107  0.4958914652178734  0.5671122560908941
  0.3675808400238125  0.2456765963366578  0.5690608029471704
  0.3674458078072647  0.7460930984613086  0.5666197358021776
  0.4669515536536011  0.1707778083066032  0.4354864948850548
  0.4669120619281983  0.6707622582894075  0.4354619152487658
  0.4338091713253078  0.4207773219971003  0.4345773474912633
  0.4337420117686435  0.9208084231393983  0.4347444957805706
  0.3341665903253102  0.1701661094422349  0.4304525062937117
  0.3341309443493472  0.6719056304913877  0.4326987238949016
  0.3016533717420202  0.4180195108761282  0.4277670007708991
  0.3016684373359482  0.9175044706125490  0.4342478693436718
  0.4007773984320124  0.1704767125069253  0.4334461036959496
  0.4006834403495034  0.6708727450929075  0.4337912845149035
  0.3675263962711313  0.4211376163433371  0.4315117603919347
  0.3673876235440048  0.9206799189173509  0.4333152448013067
  0.3018097543178087  0.0817512249884658  0.5696261145241408
  0.3016956148521928  0.5826930893127908  0.5680501063368126
  0.4669675210104884  0.3291501644218826  0.5647702533456567
  0.4669363026016313  0.8291725701516697  0.5644037252863257
  0.3674695934900853  0.0786835207572238  0.5676371255591945
  0.3674988678805846  0.5794069773079542  0.5677796933193235
  0.3342989498413189  0.3288025898771139  0.5714993424273871
  0.3342330661312687  0.8286150971273543  0.5665610630272653
  0.4338227688623491  0.0791150698840184  0.5652912361478073
  0.4338144470614580  0.5791790944310122  0.5655102632308271
  0.4008080715306761  0.3293338783441300  0.5674375224625265
  0.4007212773412832  0.8292391021022070  0.5658334422684845
  0.5332354295284389  0.9957937171659026  0.5636464498653311
  0.5332381062365812  0.4957606970796178  0.5637025754741316
  0.5663411874225375  0.7457774166288900  0.5635525555084868
  0.5663542691309189  0.2457770640705590  0.5634153055978359
  0.6658091740374417  0.9959655927032642  0.5635811944294815
  0.6658151640003211  0.4959721214330983  0.5635046139511957
  0.6982213201561009  0.7420765222646608  0.5635188941569567
  0.6982129341791392  0.2421347104548701  0.5635351001829676
  0.5000795561663622  0.7457639469092570  0.5640099503769349
  0.5001029539207593  0.2457219726608599  0.5640068168708723
  0.5994401382260151  0.9953147462976446  0.5634197461849837
  0.5994471568427926  0.4952945694547282  0.5634080172365046
  0.6327159690210280  0.7455827230341896  0.5635015160276211
  0.6327182669345817  0.2456197566986660  0.5634757769617380
  0.5331970591156079  0.0042081254377138  0.4362993681716176
  0.5332129139936939  0.5041637274664623  0.4364256991562314
  0.5663170106290281  0.7541697850145752  0.4364464955427607
  0.5663325775664987  0.2541785221988420  0.4366538280049852
  0.6657923914789095  0.0039402172928220  0.4365292626520372
  0.6657914894450911  0.5039912339130268  0.4364507025188331
  0.6981966331709444  0.7578127958310930  0.4365820693836966
  0.6981924959333057  0.2578025492471241  0.4364886976005096
  0.5000337168000684  0.7541277111854470  0.4359461285137840
  0.5000732540045405  0.2541729973764362  0.4361200929184008
  0.5994114286751184  0.0046283308187043  0.4365750646964059
  0.5994152724157757  0.5046188616871845  0.4366240710795708
  0.6326941951307745  0.7543742247929046  0.4365253699782556
  0.6326921195538517  0.2543669000487370  0.4365066805760378
  0.5332322487632979  0.8290813930963665  0.5636328684057048
  0.5332521869904454  0.3290511941696579  0.5636147479990683
  0.5663481900363578  0.5788521837934582  0.5635501364923670
  0.5663485601215328  0.0788425278914957  0.5634648832723812
  0.6658025222582253  0.8281273081417737  0.5635906283238512
  0.6658010836636095  0.3281511234779657  0.5635255689607632
  0.6982392042625989  0.5819424856272875  0.5635594841809421
  0.6982406417666809  0.0819472738852696  0.5636051433425209
  0.5000794821822581  0.5791827972964541  0.5641006352282076
  0.5000923145549763  0.0791673664007675  0.5639708563105899
  0.5994395518326101  0.8290883051871774  0.5635114947962947
  0.5994497776532128  0.3290819901538313  0.5634211742776287
  0.6327262094990971  0.5786830686645743  0.5634611397022056
  0.6327202461476205  0.0786970816202768  0.5634988536798602
  0.6982130483644369  0.9180255124780103  0.4365240620359856
  0.6982105662852476  0.4180238385730846  0.4364237159094770
  0.5000330063123570  0.9208442692879686  0.4359173678439063
  0.5000715692273801  0.4207774581665333  0.4360920432187356
  0.5331998733352350  0.6708523573560541  0.4363001513845433
  0.5332187608043171  0.1708922604895307  0.4364271277877378
  0.6327002114389515  0.9212573644331457  0.4365423550483740
  0.6326982185524130  0.4212831099236354  0.4365124477635618
  0.6657825455538742  0.6718523836762245  0.4364974479170556
  0.6657825770451069  0.1718025313404752  0.4364410090906574
  0.5663190400565483  0.9211086148776673  0.4364352842456682
  0.5663327456822316  0.4211127129939101  0.4366402962091414
  0.5994105618000347  0.6709000425335461  0.4365408909879775
  0.5994174592258119  0.1709047209805519  0.4366067341141502
  0.7239270587294442  0.9786068483641657  0.4365522966304525
  0.7239339247428020  0.4786204324079719  0.4366238502499868
  0.7239216599581511  0.8027728531330709  0.5633048061853998
  0.7239194002429770  0.3027621466847563  0.5633745712022744
  0.7238959901058664  0.6971311012026860  0.4366942192517129
  0.7239001281211799  0.1971115965585568  0.4367603396216282
  0.7239547564317093  0.0213401560336308  0.5634475823668268
  0.7239510478233626  0.5213528469974236  0.5635024535157669
  0.2760848672294784  0.0211807509591324  0.5699132780791061
  0.2759326505470199  0.5223260995643386  0.5683482331927436
  0.2760152356610277  0.1959074890700165  0.4258444977355751
  0.2759840884987455  0.6966395433913775  0.4358963598458843
  0.2760120314572418  0.3024637015795406  0.5744275179531684
  0.2760798763801446  0.8032063584283904  0.5645486728744942
  0.2759450472885590  0.9779700584848641  0.4357335202509915
  0.2759891297584858  0.4786645841421446  0.4259603609825220
  0.3302386858166457  0.3370345053457271  0.4947307982892397

  0.00000000E+00  0.00000000E+00  0.00000000E+00
  0.00000000E+00  0.00000000E+00  0.00000000E+00
  0.00000000E+00  0.00000000E+00  0.00000000E+00
  0.00000000E+00  0.00000000E+00  0.00000000E+00
  0.00000000E+00  0.00000000E+00  0.00000000E+00
  0.00000000E+00  0.00000000E+00  0.00000000E+00
  0.00000000E+00  0.00000000E+00  0.00000000E+00
  0.00000000E+00  0.00000000E+00  0.00000000E+00
  0.00000000E+00  0.00000000E+00  0.00000000E+00
  0.00000000E+00  0.00000000E+00  0.00000000E+00
  0.00000000E+00  0.00000000E+00  0.00000000E+00
  0.00000000E+00  0.00000000E+00  0.00000000E+00
  0.00000000E+00  0.00000000E+00  0.00000000E+00
  0.00000000E+00  0.00000000E+00  0.00000000E+00
  0.00000000E+00  0.00000000E+00  0.00000000E+00
  0.00000000E+00  0.00000000E+00  0.00000000E+00
  0.00000000E+00  0.00000000E+00  0.00000000E+00
  0.00000000E+00  0.00000000E+00  0.00000000E+00
  0.00000000E+00  0.00000000E+00  0.00000000E+00
  0.00000000E+00  0.00000000E+00  0.00000000E+00
  0.00000000E+00  0.00000000E+00  0.00000000E+00
  0.00000000E+00  0.00000000E+00  0.00000000E+00
  0.00000000E+00  0.00000000E+00  0.00000000E+00
  0.00000000E+00  0.00000000E+00  0.00000000E+00
  0.00000000E+00  0.00000000E+00  0.00000000E+00
  0.00000000E+00  0.00000000E+00  0.00000000E+00
  0.00000000E+00  0.00000000E+00  0.00000000E+00
  0.00000000E+00  0.00000000E+00  0.00000000E+00
  0.00000000E+00  0.00000000E+00  0.00000000E+00
  0.00000000E+00  0.00000000E+00  0.00000000E+00
  0.00000000E+00  0.00000000E+00  0.00000000E+00
  0.00000000E+00  0.00000000E+00  0.00000000E+00
  0.00000000E+00  0.00000000E+00  0.00000000E+00
  0.00000000E+00  0.00000000E+00  0.00000000E+00
  0.00000000E+00  0.00000000E+00  0.00000000E+00
  0.00000000E+00  0.00000000E+00  0.00000000E+00
  0.00000000E+00  0.00000000E+00  0.00000000E+00
  0.00000000E+00  0.00000000E+00  0.00000000E+00
  0.00000000E+00  0.00000000E+00  0.00000000E+00
  0.00000000E+00  0.00000000E+00  0.00000000E+00
  0.00000000E+00  0.00000000E+00  0.00000000E+00
  0.00000000E+00  0.00000000E+00  0.00000000E+00
  0.00000000E+00  0.00000000E+00  0.00000000E+00
  0.00000000E+00  0.00000000E+00  0.00000000E+00
  0.00000000E+00  0.00000000E+00  0.00000000E+00
  0.00000000E+00  0.00000000E+00  0.00000000E+00
  0.00000000E+00  0.00000000E+00  0.00000000E+00
  0.00000000E+00  0.00000000E+00  0.00000000E+00
  0.00000000E+00  0.00000000E+00  0.00000000E+00
  0.00000000E+00  0.00000000E+00  0.00000000E+00
  0.00000000E+00  0.00000000E+00  0.00000000E+00
  0.00000000E+00  0.00000000E+00  0.00000000E+00
  0.00000000E+00  0.00000000E+00  0.00000000E+00
  0.00000000E+00  0.00000000E+00  0.00000000E+00
  0.00000000E+00  0.00000000E+00  0.00000000E+00
  0.00000000E+00  0.00000000E+00  0.00000000E+00
  0.00000000E+00  0.00000000E+00  0.00000000E+00
  0.00000000E+00  0.00000000E+00  0.00000000E+00
  0.00000000E+00  0.00000000E+00  0.00000000E+00
  0.00000000E+00  0.00000000E+00  0.00000000E+00
  0.00000000E+00  0.00000000E+00  0.00000000E+00
  0.00000000E+00  0.00000000E+00  0.00000000E+00
  0.00000000E+00  0.00000000E+00  0.00000000E+00
  0.00000000E+00  0.00000000E+00  0.00000000E+00
  0.00000000E+00  0.00000000E+00  0.00000000E+00
  0.00000000E+00  0.00000000E+00  0.00000000E+00
  0.00000000E+00  0.00000000E+00  0.00000000E+00
  0.00000000E+00  0.00000000E+00  0.00000000E+00
  0.00000000E+00  0.00000000E+00  0.00000000E+00
  0.00000000E+00  0.00000000E+00  0.00000000E+00
  0.00000000E+00  0.00000000E+00  0.00000000E+00
  0.00000000E+00  0.00000000E+00  0.00000000E+00
  0.00000000E+00  0.00000000E+00  0.00000000E+00
  0.00000000E+00  0.00000000E+00  0.00000000E+00
  0.00000000E+00  0.00000000E+00  0.00000000E+00
  0.00000000E+00  0.00000000E+00  0.00000000E+00
  0.00000000E+00  0.00000000E+00  0.00000000E+00
  0.00000000E+00  0.00000000E+00  0.00000000E+00
  0.00000000E+00  0.00000000E+00  0.00000000E+00
  0.00000000E+00  0.00000000E+00  0.00000000E+00
  0.00000000E+00  0.00000000E+00  0.00000000E+00
  0.00000000E+00  0.00000000E+00  0.00000000E+00
  0.00000000E+00  0.00000000E+00  0.00000000E+00
  0.00000000E+00  0.00000000E+00  0.00000000E+00
  0.00000000E+00  0.00000000E+00  0.00000000E+00
  0.00000000E+00  0.00000000E+00  0.00000000E+00
  0.00000000E+00  0.00000000E+00  0.00000000E+00
  0.00000000E+00  0.00000000E+00  0.00000000E+00
  0.00000000E+00  0.00000000E+00  0.00000000E+00
  0.00000000E+00  0.00000000E+00  0.00000000E+00
  0.00000000E+00  0.00000000E+00  0.00000000E+00
  0.00000000E+00  0.00000000E+00  0.00000000E+00
  0.00000000E+00  0.00000000E+00  0.00000000E+00
  0.00000000E+00  0.00000000E+00  0.00000000E+00
  0.00000000E+00  0.00000000E+00  0.00000000E+00
  0.00000000E+00  0.00000000E+00  0.00000000E+00
  0.00000000E+00  0.00000000E+00  0.00000000E+00
  0.00000000E+00  0.00000000E+00  0.00000000E+00
  0.00000000E+00  0.00000000E+00  0.00000000E+00
  0.00000000E+00  0.00000000E+00  0.00000000E+00
  0.00000000E+00  0.00000000E+00  0.00000000E+00
  0.00000000E+00  0.00000000E+00  0.00000000E+00
  0.00000000E+00  0.00000000E+00  0.00000000E+00
  0.00000000E+00  0.00000000E+00  0.00000000E+00
  0.00000000E+00  0.00000000E+00  0.00000000E+00
  0.00000000E+00  0.00000000E+00  0.00000000E+00
  0.00000000E+00  0.00000000E+00  0.00000000E+00
  0.00000000E+00  0.00000000E+00  0.00000000E+00
  0.00000000E+00  0.00000000E+00  0.00000000E+00
  0.00000000E+00  0.00000000E+00  0.00000000E+00
  0.00000000E+00  0.00000000E+00  0.00000000E+00
  0.00000000E+00  0.00000000E+00  0.00000000E+00
  0.00000000E+00  0.00000000E+00  0.00000000E+00
  0.00000000E+00  0.00000000E+00  0.00000000E+00
  0.00000000E+00  0.00000000E+00  0.00000000E+00
  0.00000000E+00  0.00000000E+00  0.00000000E+00
  0.00000000E+00  0.00000000E+00  0.00000000E+00
  0.00000000E+00  0.00000000E+00  0.00000000E+00
  0.00000000E+00  0.00000000E+00  0.00000000E+00
  0.00000000E+00  0.00000000E+00  0.00000000E+00
  0.00000000E+00  0.00000000E+00  0.00000000E+00
