C4                                      
   1.0000000000000000     
    37.2234382628999967    0.0000000000000000    0.0000000000000000
     0.0000000000000000    8.5469398498999993    0.0000000000000000
     0.0000000000000000    0.0000000000000000   27.8030738831000015
   C    H    Li
   104    16     1
Direct
  0.4669150622336976  0.0041150284722487  0.4354606008156010
  0.4669549628592543  0.5041073975657606  0.4355078139611454
  0.4338104111081701  0.2540688052476491  0.4345799068714329
  0.4337426741975188  0.7540208993895032  0.4347623096474185
  0.3341263970874532  0.0028528206103519  0.4326579630478526
  0.3341625058560336  0.5046109235161282  0.4305511570250234
  0.3016664811920456  0.2567019493609283  0.4276734368282400
  0.3016872198963532  0.7572431491234666  0.4343162737399280
  0.4006807822315940  0.0039698335175887  0.4337947441871225
  0.4007754698944738  0.5043907401734501  0.4334861581606540
  0.3675341745549135  0.2536578420963875  0.4314790646900177
  0.3673948474667321  0.7540613450203155  0.4333311904187087
  0.4669588216035229  0.9958678692371783  0.5644091415803670
  0.4669530604942073  0.4958361034640957  0.5647602025160451
  0.4338524774444911  0.2458574450056958  0.5657175864474037
  0.4338024268437676  0.7459210562983337  0.5651326022982472
  0.3342515206008099  0.9958970147656069  0.5676022066533428
  0.3342386999536112  0.4968587818876197  0.5695588597647174
  0.3017058894372734  0.2421240116221144  0.5718273484062516
  0.3017893951015511  0.7427466889340310  0.5661602849864256
  0.4007461106874313  0.9956667291869949  0.5660070321918051
  0.4007635633610140  0.4958914652178765  0.5671122560908929
  0.3675808400238098  0.2456765963366556  0.5690608029471690
  0.3674458078072657  0.7460930984613058  0.5666197358021766
  0.4669515536535984  0.1707778083066025  0.4354864948850565
  0.4669120619282006  0.6707622582894078  0.4354619152487650
  0.4338091713253072  0.4207773219970991  0.4345773474912615
  0.4337420117686437  0.9208084231394008  0.4347444957805683
  0.3341665903253102  0.1701661094422352  0.4304525062937118
  0.3341309443493468  0.6719056304913897  0.4326987238949023
  0.3016533717420196  0.4180195108761271  0.4277670007709015
  0.3016684373359487  0.9175044706125461  0.4342478693436725
  0.4007773984320158  0.1704767125069284  0.4334461036959512
  0.4006834403495020  0.6708727450929066  0.4337912845149039
  0.3675263962711295  0.4211376163433374  0.4315117603919368
  0.3673876235440026  0.9206799189173516  0.4333152448013064
  0.3018097543178097  0.0817512249884682  0.5696261145241376
  0.3016956148521948  0.5826930893127922  0.5680501063368141
  0.4669675210104857  0.3291501644218828  0.5647702533456531
  0.4669363026016315  0.8291725701516669  0.5644037252863223
  0.3674695934900833  0.0786835207572242  0.5676371255591934
  0.3674988678805853  0.5794069773079544  0.5677796933193261
  0.3342989498413160  0.3288025898771157  0.5714993424273862
  0.3342330661312715  0.8286150971273533  0.5665610630272682
  0.4338227688623473  0.0791150698840213  0.5652912361478077
  0.4338144470614582  0.5791790944310099  0.5655102632308241
  0.4008080715306784  0.3293338783441278  0.5674375224625237
  0.4007212773412814  0.8292391021022104  0.5658334422684860
  0.5332354295284397  0.9957937171659015  0.5636464498653294
  0.5332381062365819  0.4957606970796208  0.5637025754741338
  0.5663411874225370  0.7457774166288877  0.5635525555084870
  0.5663542691309209  0.2457770640705556  0.5634153055978356
  0.6658091740374390  0.9959655927032656  0.5635811944294790
  0.6658151640003183  0.4959721214330985  0.5635046139511930
  0.6982213201561001  0.7420765222646631  0.5635188941569587
  0.6982129341791387  0.2421347104548720  0.5635351001829666
  0.5000795561663595  0.7457639469092591  0.5640099503769357
  0.5001029539207581  0.2457219726608628  0.5640068168708701
  0.5994401382260172  0.9953147462976445  0.5634197461849860
  0.5994471568427959  0.4952945694547307  0.5634080172365045
  0.6327159690210253  0.7455827230341873  0.5635015160276233
  0.6327182669345787  0.2456197566986647  0.5634757769617350
  0.5331970591156108  0.0042081254377144  0.4362993681716156
  0.5332129139936973  0.5041637274664607  0.4364256991562290
  0.5663170106290271  0.7541697850145759  0.4364464955427604
  0.5663325775665018  0.2541785221988437  0.4366538280049833
  0.6657923914789067  0.0039402172928235  0.4365292626520363
  0.6657914894450885  0.5039912339130237  0.4364507025188337
  0.6981966331709475  0.7578127958310927  0.4365820693836977
  0.6981924959333070  0.2578025492471255  0.4364886976005091
  0.5000337168000663  0.7541277111854471  0.4359461285137864
  0.5000732540045405  0.2541729973764376  0.4361200929184035
  0.5994114286751205  0.0046283308187055  0.4365750646964048
  0.5994152724157765  0.5046188616871834  0.4366240710795733
  0.6326941951307771  0.7543742247929068  0.4365253699782556
  0.6326921195538535  0.2543669000487381  0.4365066805760373
  0.5332322487632952  0.8290813930963661  0.5636328684057036
  0.5332521869904433  0.3290511941696579  0.5636147479990676
  0.5663481900363565  0.5788521837934583  0.5635501364923637
  0.5663485601215336  0.0788425278914956  0.5634648832723809
  0.6658025222582254  0.8281273081417710  0.5635906283238521
  0.6658010836636087  0.3281511234779664  0.5635255689607627
  0.6982392042626003  0.5819424856272852  0.5635594841809387
  0.6982406417666841  0.0819472738852716  0.5636051433425197
  0.5000794821822588  0.5791827972964557  0.5641006352282059
  0.5000923145549758  0.0791673664007681  0.5639708563105879
  0.5994395518326103  0.8290883051871790  0.5635114947962925
  0.5994497776532118  0.3290819901538288  0.5634211742776298
  0.6327262094990950  0.5786830686645716  0.5634611397022087
  0.6327202461476237  0.0786970816202791  0.5634988536798622
  0.6982130483644378  0.9180255124780118  0.4365240620359854
  0.6982105662852455  0.4180238385730828  0.4364237159094743
  0.5000330063123575  0.9208442692879661  0.4359173678439059
  0.5000715692273832  0.4207774581665299  0.4360920432187353
  0.5331998733352363  0.6708523573560536  0.4363001513845425
  0.5332187608043201  0.1708922604895332  0.4364271277877346
  0.6327002114389521  0.9212573644331470  0.4365423550483716
  0.6326982185524097  0.4212831099236370  0.4365124477635649
  0.6657825455538711  0.6718523836762279  0.4364974479170577
  0.6657825770451039  0.1718025313404734  0.4364410090906609
  0.5663190400565496  0.9211086148776678  0.4364352842456662
  0.5663327456822297  0.4211127129939092  0.4366402962091433
  0.5994105618000342  0.6709000425335437  0.4365408909879760
  0.5994174592258107  0.1709047209805550  0.4366067341141511
  0.7239270587294436  0.9786068483641630  0.4365522966304514
  0.7239339247428048  0.4786204324079696  0.4366238502499889
  0.7239216599581508  0.8027728531330688  0.5633048061853965
  0.7239194002429786  0.3027621466847542  0.5633745712022734
  0.7238959901058643  0.6971311012026833  0.4366942192517129
  0.7239001281211812  0.1971115965585600  0.4367603396216276
  0.7239547564317058  0.0213401560336285  0.5634475823668259
  0.7239510478233658  0.5213528469974252  0.5635024535157702
  0.2760848672294792  0.0211807509591342  0.5699132780791055
  0.2759326505470184  0.5223260995643364  0.5683482331927413
  0.2760152356610296  0.1959074890700159  0.4258444977355720
  0.2759840884987451  0.6966395433913779  0.4358963598458869
  0.2760120314572445  0.3024637015795387  0.5744275179531693
  0.2760798763801467  0.8032063584283873  0.5645486728744930
  0.2759450472885591  0.9779700584848611  0.4357335202509901
  0.2759891297584851  0.4786645841421437  0.4259603609825198
  0.3302386858166457  0.3370345053457278  0.4947307982892399

  0.00000000E+00  0.00000000E+00  0.00000000E+00
  0.00000000E+00  0.00000000E+00  0.00000000E+00
  0.00000000E+00  0.00000000E+00  0.00000000E+00
  0.00000000E+00  0.00000000E+00  0.00000000E+00
  0.00000000E+00  0.00000000E+00  0.00000000E+00
  0.00000000E+00  0.00000000E+00  0.00000000E+00
  0.00000000E+00  0.00000000E+00  0.00000000E+00
  0.00000000E+00  0.00000000E+00  0.00000000E+00
  0.00000000E+00  0.00000000E+00  0.00000000E+00
  0.00000000E+00  0.00000000E+00  0.00000000E+00
  0.00000000E+00  0.00000000E+00  0.00000000E+00
  0.00000000E+00  0.00000000E+00  0.00000000E+00
  0.00000000E+00  0.00000000E+00  0.00000000E+00
  0.00000000E+00  0.00000000E+00  0.00000000E+00
  0.00000000E+00  0.00000000E+00  0.00000000E+00
  0.00000000E+00  0.00000000E+00  0.00000000E+00
  0.00000000E+00  0.00000000E+00  0.00000000E+00
  0.00000000E+00  0.00000000E+00  0.00000000E+00
  0.00000000E+00  0.00000000E+00  0.00000000E+00
  0.00000000E+00  0.00000000E+00  0.00000000E+00
  0.00000000E+00  0.00000000E+00  0.00000000E+00
  0.00000000E+00  0.00000000E+00  0.00000000E+00
  0.00000000E+00  0.00000000E+00  0.00000000E+00
  0.00000000E+00  0.00000000E+00  0.00000000E+00
  0.00000000E+00  0.00000000E+00  0.00000000E+00
  0.00000000E+00  0.00000000E+00  0.00000000E+00
  0.00000000E+00  0.00000000E+00  0.00000000E+00
  0.00000000E+00  0.00000000E+00  0.00000000E+00
  0.00000000E+00  0.00000000E+00  0.00000000E+00
  0.00000000E+00  0.00000000E+00  0.00000000E+00
  0.00000000E+00  0.00000000E+00  0.00000000E+00
  0.00000000E+00  0.00000000E+00  0.00000000E+00
  0.00000000E+00  0.00000000E+00  0.00000000E+00
  0.00000000E+00  0.00000000E+00  0.00000000E+00
  0.00000000E+00  0.00000000E+00  0.00000000E+00
  0.00000000E+00  0.00000000E+00  0.00000000E+00
  0.00000000E+00  0.00000000E+00  0.00000000E+00
  0.00000000E+00  0.00000000E+00  0.00000000E+00
  0.00000000E+00  0.00000000E+00  0.00000000E+00
  0.00000000E+00  0.00000000E+00  0.00000000E+00
  0.00000000E+00  0.00000000E+00  0.00000000E+00
  0.00000000E+00  0.00000000E+00  0.00000000E+00
  0.00000000E+00  0.00000000E+00  0.00000000E+00
  0.00000000E+00  0.00000000E+00  0.00000000E+00
  0.00000000E+00  0.00000000E+00  0.00000000E+00
  0.00000000E+00  0.00000000E+00  0.00000000E+00
  0.00000000E+00  0.00000000E+00  0.00000000E+00
  0.00000000E+00  0.00000000E+00  0.00000000E+00
  0.00000000E+00  0.00000000E+00  0.00000000E+00
  0.00000000E+00  0.00000000E+00  0.00000000E+00
  0.00000000E+00  0.00000000E+00  0.00000000E+00
  0.00000000E+00  0.00000000E+00  0.00000000E+00
  0.00000000E+00  0.00000000E+00  0.00000000E+00
  0.00000000E+00  0.00000000E+00  0.00000000E+00
  0.00000000E+00  0.00000000E+00  0.00000000E+00
  0.00000000E+00  0.00000000E+00  0.00000000E+00
  0.00000000E+00  0.00000000E+00  0.00000000E+00
  0.00000000E+00  0.00000000E+00  0.00000000E+00
  0.00000000E+00  0.00000000E+00  0.00000000E+00
  0.00000000E+00  0.00000000E+00  0.00000000E+00
  0.00000000E+00  0.00000000E+00  0.00000000E+00
  0.00000000E+00  0.00000000E+00  0.00000000E+00
  0.00000000E+00  0.00000000E+00  0.00000000E+00
  0.00000000E+00  0.00000000E+00  0.00000000E+00
  0.00000000E+00  0.00000000E+00  0.00000000E+00
  0.00000000E+00  0.00000000E+00  0.00000000E+00
  0.00000000E+00  0.00000000E+00  0.00000000E+00
  0.00000000E+00  0.00000000E+00  0.00000000E+00
  0.00000000E+00  0.00000000E+00  0.00000000E+00
  0.00000000E+00  0.00000000E+00  0.00000000E+00
  0.00000000E+00  0.00000000E+00  0.00000000E+00
  0.00000000E+00  0.00000000E+00  0.00000000E+00
  0.00000000E+00  0.00000000E+00  0.00000000E+00
  0.00000000E+00  0.00000000E+00  0.00000000E+00
  0.00000000E+00  0.00000000E+00  0.00000000E+00
  0.00000000E+00  0.00000000E+00  0.00000000E+00
  0.00000000E+00  0.00000000E+00  0.00000000E+00
  0.00000000E+00  0.00000000E+00  0.00000000E+00
  0.00000000E+00  0.00000000E+00  0.00000000E+00
  0.00000000E+00  0.00000000E+00  0.00000000E+00
  0.00000000E+00  0.00000000E+00  0.00000000E+00
  0.00000000E+00  0.00000000E+00  0.00000000E+00
  0.00000000E+00  0.00000000E+00  0.00000000E+00
  0.00000000E+00  0.00000000E+00  0.00000000E+00
  0.00000000E+00  0.00000000E+00  0.00000000E+00
  0.00000000E+00  0.00000000E+00  0.00000000E+00
  0.00000000E+00  0.00000000E+00  0.00000000E+00
  0.00000000E+00  0.00000000E+00  0.00000000E+00
  0.00000000E+00  0.00000000E+00  0.00000000E+00
  0.00000000E+00  0.00000000E+00  0.00000000E+00
  0.00000000E+00  0.00000000E+00  0.00000000E+00
  0.00000000E+00  0.00000000E+00  0.00000000E+00
  0.00000000E+00  0.00000000E+00  0.00000000E+00
  0.00000000E+00  0.00000000E+00  0.00000000E+00
  0.00000000E+00  0.00000000E+00  0.00000000E+00
  0.00000000E+00  0.00000000E+00  0.00000000E+00
  0.00000000E+00  0.00000000E+00  0.00000000E+00
  0.00000000E+00  0.00000000E+00  0.00000000E+00
  0.00000000E+00  0.00000000E+00  0.00000000E+00
  0.00000000E+00  0.00000000E+00  0.00000000E+00
  0.00000000E+00  0.00000000E+00  0.00000000E+00
  0.00000000E+00  0.00000000E+00  0.00000000E+00
  0.00000000E+00  0.00000000E+00  0.00000000E+00
  0.00000000E+00  0.00000000E+00  0.00000000E+00
  0.00000000E+00  0.00000000E+00  0.00000000E+00
  0.00000000E+00  0.00000000E+00  0.00000000E+00
  0.00000000E+00  0.00000000E+00  0.00000000E+00
  0.00000000E+00  0.00000000E+00  0.00000000E+00
  0.00000000E+00  0.00000000E+00  0.00000000E+00
  0.00000000E+00  0.00000000E+00  0.00000000E+00
  0.00000000E+00  0.00000000E+00  0.00000000E+00
  0.00000000E+00  0.00000000E+00  0.00000000E+00
  0.00000000E+00  0.00000000E+00  0.00000000E+00
  0.00000000E+00  0.00000000E+00  0.00000000E+00
  0.00000000E+00  0.00000000E+00  0.00000000E+00
  0.00000000E+00  0.00000000E+00  0.00000000E+00
  0.00000000E+00  0.00000000E+00  0.00000000E+00
  0.00000000E+00  0.00000000E+00  0.00000000E+00
  0.00000000E+00  0.00000000E+00  0.00000000E+00
  0.00000000E+00  0.00000000E+00  0.00000000E+00
  0.00000000E+00  0.00000000E+00  0.00000000E+00
