C    Li                                 
   1.0000000000000000     
    14.8037481308000007    0.0000000000000000    0.0000000000000000
    -7.4018740654000004   12.8204219525000003    0.0000000000000000
     0.0000000000000000    0.0000000000000000   27.8030738831000015
   C    Li
   143     1
Direct
  0.9998285076412136  0.9999138965430397  0.4358314786411364
  0.9998286691843590  0.4999112997323604  0.4358497032031011
  0.4998420459234327  0.9999239193890450  0.4352833752138268
  0.4998281001869078  0.4999260286378474  0.4359172908583476
  0.9998315442200750  0.1665826105766812  0.4360880113766574
  0.9998129496689112  0.6665693617734136  0.4356340612918351
  0.4998346346977772  0.1665820955463250  0.4368232857648207
  0.4998573537488251  0.6665680686908309  0.4340805389678216
  0.9998361767089731  0.3332485911131480  0.4360405768677127
  0.9998171705562604  0.8332389210659688  0.4355647837477961
  0.4998379985317015  0.3332739558310326  0.4372923214254639
  0.4998494095439159  0.8332557457577470  0.4340398112868128
  0.1664974176586031  0.9999133218430100  0.4362470585147957
  0.1665059149774796  0.4999085523744113  0.4353183591603031
  0.6665115808874180  0.9999352043605517  0.4347797321600694
  0.6664692975454547  0.4999147656229818  0.4365056064264727
  0.1664989789096078  0.1665838468015308  0.4367466825544468
  0.1664968225623068  0.6665751533875408  0.4350455599806753
  0.6665043225367339  0.1665854343787834  0.4360786710893472
  0.6664623388923496  0.6665674926664553  0.4349921639665385
  0.1665041406557984  0.3332468774381989  0.4362266168932077
  0.1664909240724211  0.8332420856541191  0.4354371091531586
  0.6664993748240314  0.3332502640343392  0.4369560760698666
  0.6665206558112331  0.8332697455027873  0.4341684098789225
  0.3331662120788783  0.9999124659645701  0.4360288828341658
  0.3331845315770433  0.4999009789690977  0.4351781055183656
  0.8331743183883518  0.9999291988668736  0.4351160839209327
  0.8331500793714036  0.4999093989142203  0.4363615416171566
  0.3331717461874993  0.1665899756010260  0.4371410449171664
  0.3331784014513188  0.6665676891171254  0.4342553378501551
  0.8331698144039265  0.1665901894500569  0.4357289843619799
  0.8331310820316384  0.6665662230468209  0.4356971290962009
  0.3331810108100449  0.3332797101397305  0.4368716580395224
  0.3331703952232308  0.8332498774156117  0.4347441336069569
  0.8331683940589422  0.3332505696836749  0.4363218412942860
  0.8331557901619999  0.8332478882966710  0.4350374962552834
  0.0001712465808725  0.9996772593981974  0.5634659008743309
  0.0006310898829224  0.5003172612697725  0.5636457750868982
  0.5008068513622531 -0.0000159713849150  0.5619863680169486
  0.0019206371218962  0.1677869555587263  0.5644838823604529
  0.9991509731760284  0.6659987640269269  0.5632042163077883
  0.5001339158690837  0.1647934352434414  0.5666721324883103
  0.5032092039308904  0.6698867923227174  0.5540645033549094
  0.0021583433107886  0.3344283670584503  0.5638143566450442
  0.9990981059637903  0.8322333514571392  0.5627762414554018
  0.4981964582389543  0.3287731077346582  0.5753059514590152
  0.5015228319247237  0.8349387732741860  0.5584074329465009
  0.1660996685881747  0.9983015425735923  0.5643850553931826
  0.1700031484027643  0.5004456813119589  0.5622409708159231
  0.6682087243545581  0.0018914414054594  0.5609060287155055
  0.6588595011865509  0.4988681302732662  0.5656098903426298
  0.1667138922477792  0.1652695151460786  0.5666056526565875
  0.1672979310706263  0.6662869716875762  0.5617892262631810
  0.6676458616218337  0.1675801561110105  0.5641029535403260
  0.6648540618304207  0.6678614521617033  0.5606208370155923
  0.1700854208042369  0.3343318281174351  0.5653616241633443
  0.1662829315975504  0.8321199281218751  0.5624689656920706
  0.6660424643156192  0.3335831454575747  0.5674765809240645
  0.6687179431310347  0.8365623481379927  0.5584588349243749
  0.3332169786192434  0.9983761384457689  0.5638296673285140
  0.3414012445075739  0.5001041469559182  0.5596060772747561
  0.8350275148034633  0.0017530124895090  0.5620252168323016
  0.8310323552389887  0.4999140307634807  0.5649690773105114
  0.3326009137381321  0.1635090189388691  0.5695119544949024
  0.3352330367746645  0.6668096150745537  0.5583078144233570
  0.8350294615443901  0.1681357378671673  0.5632097874883666
  0.8310764218088538  0.6658701148026870  0.5632838097756417
  0.3338338326132135  0.3300840049875098  0.5734393144080514
  0.3338090662491857  0.8327281669684269  0.5606664682054266
  0.8340769082195575  0.3342287068273112  0.5643712956712407
  0.8331996427218024  0.8337957446302579  0.5616000188947513
  0.0553877412594816  0.1110263277912734  0.4362397972761486
  0.0553762403955328  0.6110157787256515  0.4355112957820388
  0.5553913886054717  0.1110307213167848  0.4360867486889088
  0.5553762081918878  0.6110042488169020  0.4348238211233483
  0.0553966850648797  0.2776980085548225  0.4361627979497459
  0.0553734164141077  0.7776811082206154  0.4355061573189871
  0.5553866721955723  0.2777035561710189  0.4371955026653898
  0.5554037476077580  0.7776872052168604  0.4338684852397746
  0.0553878813900601  0.4443588896640898  0.4357727338278441
  0.0553795609070507  0.9443553987959288  0.4358542165920716
  0.5553645194637096  0.4443817090463001  0.4367194296028197
  0.5553986750552546  0.9443750555430254  0.4345674236447174
  0.2220554432233609  0.1110250702670512  0.4367970347940908
  0.2220572416025123  0.6110181933065298  0.4347920803967324
  0.7220585311306446  0.1110352252051583  0.4354824795967810
  0.7220201162742463  0.6110139037515416  0.4357663576967247
  0.2220621548124032  0.2777033296108115  0.4367199639675572
  0.2220501851705124  0.7776903092139711  0.4350122693755666
  0.7220539924157493  0.2776993052582345  0.4365280410816687
  0.7220449393187731  0.7776915676472731  0.4345791480661162
  0.2220722419566477  0.4443572309782236  0.4355488183198838
  0.2220471281316718  0.9443511051922904  0.4358929943778808
  0.7220361239571659  0.4443643136782112  0.4367416913128125
  0.7220646600141903  0.9443709044506992  0.4345458469735780
  0.3887185047814541  0.1110242727013532  0.4367562129397825
  0.3887367085981397  0.6110039582522218  0.4343105120666396
  0.8887202758152019  0.1110348494728673  0.4356087781872734
  0.8886964101351614  0.6110167925497036  0.4359461003930968
  0.3887269048374084  0.2777053492240748  0.4373029522213697
  0.3887277342545146  0.7776920581766295  0.4341897910230982
  0.8887228973209160  0.2776932569289487  0.4360664949488813
  0.8887044577835727  0.7776815005949245  0.4353777588830292
  0.3887358879166871  0.4443669201119623  0.4360008751512910
  0.3887267525619815  0.9443660454609132  0.4352906163770687
  0.8887166147684976  0.4443602851487864  0.4362471866633887
  0.8887221028139924  0.9443658677344480  0.4352492028199074
  0.1110136951903713  0.0543526459045816  0.5647530149814601
  0.1126736428166733  0.5554403285590499  0.5625927207313450
  0.6120876741479848  0.0566000357547664  0.5622507236756304
  0.6058927169555148  0.5588428586785483  0.5638013305204793
  0.1129672478421989  0.2226491499631619  0.5660369818645388
  0.1107331260997343  0.7212334987347424  0.5624606475945187
  0.6113576487999584  0.2221020661635018  0.5664438239467772
  0.6139497731155739  0.7273528805928727  0.5566675532687830
  0.1137401626074918  0.3895292793769914  0.5635579679912767
  0.1103835268133698  0.8874291387939927  0.5630548909097958
  0.6090870097821860  0.3876260666242061  0.5702374503916068
  0.6126449572146410  0.8914294446568928  0.5588284557104080
  0.2771431659245970  0.0531700355583208  0.5658258806211627
  0.2823379696929244  0.5557865515609133  0.5598926356124485
  0.7794508551082134  0.0573072672562574  0.5620213159554531
  0.7732161988466953  0.5547916285538095  0.5645376727660344
  0.2814442357572102  0.3886003804789557  0.5664558481292294
  0.2776067037957668  0.8875907188031683  0.5621676226717944
  0.7773717099705806  0.3890774560770542  0.5654317098043852
  0.7795267431334157  0.8910811304468521  0.5607785406482052
  0.4445084419980960  0.0542474389573756  0.5639358926256681
  0.4529096425444688  0.5615379683405612  0.5522359721769062
  0.9459589727364922  0.0566008758651406  0.5634605975330609
  0.9432956199890996  0.5551543384399802  0.5639710504345951
  0.4435824673959973  0.2183174137199840  0.5704811858518931
  0.4460507029111530  0.7241386141968228  0.5565627628053673
  0.9463016460621134  0.2234045827010362  0.5639057451523041
  0.9429962360208265  0.7211249232774978  0.5630530676042740
  0.4404954656514458  0.3776754587174532  0.5843224599647092
  0.4451296849977758  0.8891841011493109  0.5602938721094288
  0.9456223909689496  0.3895153387997820  0.5638877623949180
  0.9442339180615098  0.8885186569005941  0.5625986933914502
  0.2771378412806961  0.2190400025774550  0.5698451278803410
  0.2784924068428403  0.7217355594914557  0.5601646131769256
  0.7789594435496089  0.2232796761123601  0.5638582595944076
  0.7768234540753414  0.7224822669404015  0.5620344174537971
  0.4776566001160379  0.5108919590974355  0.6168499185766256

             NaN             NaN             NaN
             NaN             NaN             NaN
             NaN             NaN             NaN
             NaN             NaN             NaN
             NaN             NaN             NaN
             NaN             NaN             NaN
             NaN             NaN             NaN
             NaN             NaN             NaN
             NaN             NaN             NaN
             NaN             NaN             NaN
             NaN             NaN             NaN
             NaN             NaN             NaN
             NaN             NaN             NaN
             NaN             NaN             NaN
             NaN             NaN             NaN
             NaN             NaN             NaN
             NaN             NaN             NaN
             NaN             NaN             NaN
             NaN             NaN             NaN
             NaN             NaN             NaN
             NaN             NaN             NaN
             NaN             NaN             NaN
             NaN             NaN             NaN
             NaN             NaN             NaN
             NaN             NaN             NaN
             NaN             NaN             NaN
             NaN             NaN             NaN
             NaN             NaN             NaN
             NaN             NaN             NaN
             NaN             NaN             NaN
             NaN             NaN             NaN
             NaN             NaN             NaN
             NaN             NaN             NaN
             NaN             NaN             NaN
             NaN             NaN             NaN
             NaN             NaN             NaN
             NaN             NaN             NaN
             NaN             NaN             NaN
             NaN             NaN             NaN
             NaN             NaN             NaN
             NaN             NaN             NaN
             NaN             NaN             NaN
             NaN             NaN             NaN
             NaN             NaN             NaN
             NaN             NaN             NaN
             NaN             NaN             NaN
             NaN             NaN             NaN
             NaN             NaN             NaN
             NaN             NaN             NaN
             NaN             NaN             NaN
             NaN             NaN             NaN
             NaN             NaN             NaN
             NaN             NaN             NaN
             NaN             NaN             NaN
             NaN             NaN             NaN
             NaN             NaN             NaN
             NaN             NaN             NaN
             NaN             NaN             NaN
             NaN             NaN             NaN
             NaN             NaN             NaN
             NaN             NaN             NaN
             NaN             NaN             NaN
             NaN             NaN             NaN
             NaN             NaN             NaN
             NaN             NaN             NaN
             NaN             NaN             NaN
             NaN             NaN             NaN
             NaN             NaN             NaN
             NaN             NaN             NaN
             NaN             NaN             NaN
             NaN             NaN             NaN
             NaN             NaN             NaN
             NaN             NaN             NaN
             NaN             NaN             NaN
             NaN             NaN             NaN
             NaN             NaN             NaN
             NaN             NaN             NaN
             NaN             NaN             NaN
             NaN             NaN             NaN
             NaN             NaN             NaN
             NaN             NaN             NaN
             NaN             NaN             NaN
             NaN             NaN             NaN
             NaN             NaN             NaN
             NaN             NaN             NaN
             NaN             NaN             NaN
             NaN             NaN             NaN
             NaN             NaN             NaN
             NaN             NaN             NaN
             NaN             NaN             NaN
             NaN             NaN             NaN
             NaN             NaN             NaN
             NaN             NaN             NaN
             NaN             NaN             NaN
             NaN             NaN             NaN
             NaN             NaN             NaN
             NaN             NaN             NaN
             NaN             NaN             NaN
             NaN             NaN             NaN
             NaN             NaN             NaN
             NaN             NaN             NaN
             NaN             NaN             NaN
             NaN             NaN             NaN
             NaN             NaN             NaN
             NaN             NaN             NaN
             NaN             NaN             NaN
             NaN             NaN             NaN
             NaN             NaN             NaN
             NaN             NaN             NaN
             NaN             NaN             NaN
             NaN             NaN             NaN
             NaN             NaN             NaN
             NaN             NaN             NaN
             NaN             NaN             NaN
             NaN             NaN             NaN
             NaN             NaN             NaN
             NaN             NaN             NaN
             NaN             NaN             NaN
             NaN             NaN             NaN
             NaN             NaN             NaN
             NaN             NaN             NaN
             NaN             NaN             NaN
             NaN             NaN             NaN
             NaN             NaN             NaN
             NaN             NaN             NaN
             NaN             NaN             NaN
             NaN             NaN             NaN
             NaN             NaN             NaN
             NaN             NaN             NaN
             NaN             NaN             NaN
             NaN             NaN             NaN
             NaN             NaN             NaN
             NaN             NaN             NaN
             NaN             NaN             NaN
             NaN             NaN             NaN
             NaN             NaN             NaN
             NaN             NaN             NaN
             NaN             NaN             NaN
             NaN             NaN             NaN
             NaN             NaN             NaN
             NaN             NaN             NaN
             NaN             NaN             NaN
             NaN             NaN             NaN
             NaN             NaN             NaN
