C    Li
   1.0000000000000000     
  14.8037481308000007   0.0000000000000000   0.0000000000000000
  -7.4018740654000004  12.8204219525000003   0.0000000000000000
   0.0000000000000000   0.0000000000000000  27.8030738831000015
C    Li
143  1  
Direct
  0.9998956240971000  0.9999713660376770  0.4356528816104370  
  0.9998981694110900  0.4999655165831460  0.4356852275360410  
  0.4999064643300390  0.9999748531748840  0.4353311693738530  
  0.4999059777397510  0.4999861005107820  0.4361536800724790  
  0.9998940307715710  0.1666388152652020  0.4359605052731870  
  0.9998911434652130  0.6666286208268130  0.4354597790015550  
  0.4999015110383810  0.1666379729340900  0.4366014365990840  
  0.4999234679641800  0.6666252545105280  0.4346316971205870  
  0.9998989086969770  0.3333019354924360  0.4359107590877040  
  0.9998901338002359  0.8332966799827730  0.4353861883267880  
  0.4999084592183110  0.3333254502391440  0.4371698520817800  
  0.4999137261106630  0.8333047831073800  0.4344841658962580  
  0.1665632527912710  0.9999711314446600  0.4360335480513700  
  0.1665722799329500  0.4999627731423150  0.4355107590740630  
  0.6665754382740940  0.9999820872461100  0.4349267546657390  
  0.6665477335492160  0.4999718051941640  0.4363845354770820  
  0.1665608712944860  0.1666370369244630  0.4365950077253520  
  0.1665691632368930  0.6666290436326180  0.4351519359566750  
  0.6665677255148030  0.1666371024394100  0.4359067178103260  
  0.6665367142697820  0.6666233252497240  0.4351938500564780  
  0.1665665557646680  0.3333005817721290  0.4362957043850810  
  0.1665670794755270  0.8333003164303610  0.4353522760507570  
  0.6665678745035560  0.3333026912542180  0.4366602801007820  
  0.6665809214940670  0.8333151830887430  0.4345153600929170  
  0.3332321495548380  0.9999684941101350  0.4359067287882250  
  0.3332461872660840  0.4999599744778250  0.4355990528179130  
  0.8332376096957360  0.9999775017120101  0.4351323333740280  
  0.8332209787105210  0.4999641075110190  0.4360659294185470  
  0.3332347369550630  0.1666399969115350  0.4369492698596320  
  0.3332475002778570  0.6666204419240240  0.4347519143815290  
  0.8332344117676410  0.1666406311141340  0.4355898028297320  
  0.8332070725209920  0.6666211909963879  0.4355459062810570  
  0.3332435394859350  0.3333281004935670  0.4369357742110080  
  0.3332407776346140  0.8333010797263110  0.4349567026127450  
  0.8332334553832080  0.3333030789794980  0.4360476018614750  
  0.8332246213865560  0.8333000643376640  0.4350495318205740  
  0.0000588648239557  0.9998480133008130  0.5627842162100620  
  0.0004074358204420  0.5004235084159350  0.5631571937757370  
  0.5006565795691960  0.0001835062046425  0.5618821358493730  
  0.0020077459541099  0.1681294018713540  0.5638219916018270  
  0.9989451391302920  0.6660764247128700  0.5627213058536920  
  0.4999464089462080  0.1645785732812190  0.5655272680394750  
  0.5031431633848270  0.6713243757188470  0.5569145117596510  
  0.0022208266239048  0.3346680450368920  0.5632611109513450  
  0.9989026540855620  0.8322933953877940  0.5622228205298470  
  0.4980487952330610  0.3273537337756380  0.5765961511843120  
  0.5014733081887360  0.8355794210181390  0.5601069244549920  
  0.1658344832622590  0.9982480676528600  0.5635402102520860  
  0.1697019587930060  0.5006790031723940  0.5628788500155150  
  0.6681573736308200  0.0022300856546806  0.5611942134138630  
  0.6590677963799720  0.4992389708976570  0.5661163747262140  
  0.1665586121638680  0.1652613959899650  0.5658882638143720  
  0.1670542857011910  0.6664004673934020  0.5620468652528250  
  0.6674963866667550  0.1677899590434540  0.5633507532085600  
  0.6649432097844250  0.6679880330341060  0.5613437970787630  
  0.1705457387840500  0.3347067675058210  0.5656370316912460  
  0.1660281899586380  0.8321227693669609  0.5621579352820590  
  0.6657849120861530  0.3336533108439210  0.5665768018641369  
  0.6686703400966750  0.8368739975085190  0.5597462385518600  
  0.3329578329499370  0.9983311319098860  0.5631352286683370  
  0.3409724130561430  0.5011841400020390  0.5615228634197680  
  0.8350326350175620  0.0021040611555207  0.5618232935295500  
  0.8309412614428100  0.5000641008635540  0.5642515058359689  
  0.3322946860338050  0.1631662523592470  0.5688187657215740  
  0.3350734307904660  0.6672928294561230  0.5601801990138000  
  0.8349879062264240  0.1684520569282670  0.5626482606678640  
  0.8309682446517000  0.6660121283132340  0.5628511802176920  
  0.3335993498396450  0.3292425351221980  0.5754544399436410  
  0.3336123342405340  0.8329167887498560  0.5612300668816990  
  0.8339267109949380  0.3344314694219580  0.5634485240840160  
  0.8331899320078689  0.8340736376153119  0.5615006275869870  
  0.0554517717009873  0.1110850333179630  0.4360767752728520  
  0.0554513693097292  0.6110735919546290  0.4354204717802550  
  0.5554557307134260  0.1110861434877680  0.4359519314610910  
  0.5554517188467540  0.6110703485807250  0.4352078924439770  
  0.0554586480700934  0.2777534137590930  0.4360923181061050  
  0.0554490466583317  0.7777396576261570  0.4353545106157030  
  0.5554545820311110  0.2777563931255290  0.4369525037036300  
  0.5554631092545680  0.7777357241630440  0.4343734747248430  
  0.0554545316317174  0.4444136556148730  0.4357190105887630  
  0.0554482556509299  0.9444142340235330  0.4356463105551780  
  0.5554412734270290  0.4444376884371830  0.4367123096520520  
  0.5554612981428870  0.9444227022593520  0.4348038950789430  
  0.2221187041306720  0.1110793533012640  0.4365895168948550  
  0.2221249333964860  0.6110709791779390  0.4350897659319410  
  0.7221215382555430  0.1110853663577560  0.4354169449142450  
  0.7220938723520330  0.6110690177293280  0.4357223420106280  
  0.2221230007953990  0.2777554319872730  0.4367219577659540  
  0.2221217096769480  0.7777442263437070  0.4350980621046430  
  0.7221182229754750  0.2777526643817790  0.4362528868366410  
  0.7221110062716680  0.7777408419106850  0.4347946919456970  
  0.2221409563203170  0.4444165812447030  0.4358143107812400  
  0.2221183554232770  0.9444118964854770  0.4357425758158230  
  0.7221084788656070  0.4444203251282770  0.4364657272267390  
  0.7221259328498920  0.9444169769660320  0.4347431348411420  
  0.3887846629505630  0.1110794914227280  0.4365510037319990  
  0.3888017654383870  0.6110629821244160  0.4348619284426720  
  0.8887847233801270  0.1110860844938130  0.4355123924396120  
  0.8887736897191520  0.6110736247823000  0.4357009494715810  
  0.3887925360098310  0.2777553913129580  0.4372118546466770  
  0.3887962158255080  0.7777442036104600  0.4346174237497490  
  0.8887879811741680  0.2777480718792380  0.4358529153596460  
  0.8887775408825220  0.7777370871933230  0.4352651378944400  
  0.3888041465332960  0.4444254249113090  0.4362765354619070  
  0.3887906233984920  0.9444165039296810  0.4353363037079280  
  0.8887818699412050  0.4444125624407530  0.4359649003757720  
  0.8887866006547400  0.9444164980346700  0.4351993660055910  
  0.1108537996076610  0.0543983307070519  0.5638400678020550  
  0.1123965403462530  0.5555604443996600  0.5627197916104760  
  0.6119425738393430  0.0568293692080246  0.5620595788764789  
  0.6061859812258210  0.5589890291423389  0.5640478156833100  
  0.1130990733043620  0.2229335157173860  0.5655726340442730  
  0.1104938265929790  0.7212767063427710  0.5622501953537480  
  0.6111390524474560  0.2221489336085160  0.5654187971915970  
  0.6138185240738210  0.7276525702103740  0.5586517564568541  
  0.1138879259568880  0.3897681063200200  0.5635717157452760  
  0.1101361427141040  0.8874061648388361  0.5624534436352920  
  0.6089267179847440  0.3875090111127550  0.5703801383773450  
  0.6125805274405710  0.8917903426468710  0.5600559218905230  
  0.2768302970588930  0.0530165155995022  0.5648681832785910  
  0.2819197989825140  0.5562189658741370  0.5615326887805240  
  0.7794185996856410  0.0576427144677965  0.5618535295752100  
  0.7732400508165400  0.5549363670658070  0.5642917797995960  
  0.2820602040850770  0.3891646701197050  0.5680051538564190  
  0.2773382292191400  0.8876104182618220  0.5619937121644510  
  0.7771889561449110  0.3892319695755480  0.5644418643842710  
  0.7795555923100180  0.8914258266960360  0.5610457210895560  
  0.4442413497162650  0.0541925033330770  0.5631201683661470  
  0.4519566938671180  0.5638198154967921  0.5548486197722010  
  0.9459835654873960  0.0569157054624796  0.5628510222800860  
  0.9431236779730340  0.5552462590341850  0.5633296549891260  
  0.4432786494425120  0.2175775373217870  0.5699269858752630  
  0.4459487368542630  0.7250311831548540  0.5590797124675010  
  0.9463065432308330  0.2236807569460380  0.5632635257851820  
  0.9428375594048790  0.7212154962036120  0.5624971408016040  
  0.4392423371975130  0.3732738734459180  0.5881312705100330  
  0.4449385745637360  0.8895150598667880  0.5610715326802160  
  0.9455242744299210  0.3896657479756700  0.5631998776811070  
  0.9441452712719920  0.8887031421101880  0.5621189559502610  
  0.2768049258565740  0.2186702799089280  0.5697336929944540  
  0.2782695729333110  0.7219701480797130  0.5610997764686160  
  0.7788340964162120  0.2235061960665520  0.5630986425000940  
  0.7768148473018930  0.7227471530863380  0.5619605204178409  
  0.4827904278588380  0.4980129896361730  0.6071011266383119  
