C    H    Li                            
   1.0000000000000000     
    37.2234382628999967    0.0000000000000000    0.0000000000000000
     0.0000000000000000    8.5469398498999993    0.0000000000000000
     0.0000000000000000    0.0000000000000000   27.8030738831000015
   C    H    Li
   104    16     1
Direct
  0.4666531016294535  0.0044041540800061  0.4363348167693267
  0.4666562015435228  0.5043824971705001  0.4364292997429707
  0.4335493787370095  0.2543483331389559  0.4366104300137828
  0.4335401701728666  0.7543293992680896  0.4363289853135330
  0.3340171719897265  0.0038230563433429  0.4358231774928297
  0.3340667318117324  0.5043181364245504  0.4350588448636630
  0.3017641866387105  0.2576008521330974  0.4315087714035515
  0.3015995886834303  0.7577585088106973  0.4368628883814490
  0.4004263517431730  0.0047479798974141  0.4363532296428533
  0.4004315200568463  0.5047431760056541  0.4365829740439564
  0.3671523149412094  0.2543389248371912  0.4361235941193357
  0.3671513858855607  0.7543922685405214  0.4361810786871713
  0.4666781328773863  0.9957319541530958  0.5635979349732374
  0.4666811013517614  0.4957210248449199  0.5636696591036476
  0.4335792577857492  0.2457836175391610  0.5634737477078078
  0.4335653914270741  0.7458050486829801  0.5636051227440101
  0.3340460291375749  0.9960225432484074  0.5642016619390431
  0.3340743769584303  0.4962044294827986  0.5649344529515035
  0.3018148921011528  0.2420833883256338  0.5680216682220343
  0.3016307186448196  0.7425104658007284  0.5637940342240911
  0.4004468658872376  0.9953983995368297  0.5633865837064860
  0.4004626942572229  0.4953732077429932  0.5637242019224248
  0.3671891036076080  0.2457873083020798  0.5640161356672354
  0.3671688921880218  0.7457558460217196  0.5636905967133773
  0.4666527785828711  0.1712066110685806  0.4364176261799393
  0.4666480959043057  0.6711886738728308  0.4363310660511389
  0.4335457503965151  0.4212491280825176  0.4366029825483133
  0.4335356024425596  0.9212832029445195  0.4363218085493815
  0.3340804150916692  0.1714353885557801  0.4349350553353928
  0.3340277094433106  0.6719086790561121  0.4358903823849876
  0.3017100777709673  0.4182878623340940  0.4316149173946073
  0.3015830130745974  0.9179471905712104  0.4367685266292790
  0.4004275697920756  0.1709409524615339  0.4365572836896313
  0.4004226400170657  0.6709303708244873  0.4363399029926944
  0.3671372108410526  0.4213665877812893  0.4361430067123484
  0.3671413419713069  0.9213015198350516  0.4361644604982754
  0.3016444452154403  0.0817362663481042  0.5666914648668357
  0.3016728068418560  0.5823427667111700  0.5647321007841785
  0.4666809069310481  0.3289212292447170  0.5636231743758107
  0.4666734292931559  0.8289328250576532  0.5636577885758611
  0.3671570640211651  0.0788101900864990  0.5637266958642435
  0.3671784273867431  0.5788246141627620  0.5640059586648375
  0.3341330705916886  0.3286139720800819  0.5655320038419663
  0.3340532112165415  0.8283037602120988  0.5637835475303036
  0.4335684031191698  0.0788630470135080  0.5634566547633266
  0.4335722292531412  0.5788565477028921  0.5636529213382251
  0.4004671096791056  0.3292240488624019  0.5635932365485576
  0.4004468596395594  0.8292041874435314  0.5635154605817591
  0.5330159411616333  0.9956388399397968  0.5638441742026606
  0.5330166140095098  0.4956406894019240  0.5638538673462614
  0.5661170867967850  0.7456791676900709  0.5639237829804515
  0.5661185523895065  0.2456776736477168  0.5639209427649159
  0.6656070182243391  0.9959126366249316  0.5638380866537379
  0.6656073212000213  0.4959140052644714  0.5638367521038835
  0.6980193038956571  0.7420680586943695  0.5635608187374652
  0.6980195781871608  0.2420662619886390  0.5635668763956974
  0.4998454149095752  0.7454987613522682  0.5637504215512468
  0.4998518430717661  0.2454905227387597  0.5637129367142935
  0.5992337103019547  0.9951615883915912  0.5639514954381299
  0.5992340515437439  0.4951634594289775  0.5639522120478168
  0.6325167798812394  0.7455207127755127  0.5639630827979957
  0.6325173383612847  0.2455205414683432  0.5639636419924908
  0.5329891648351976  0.0044656283300309  0.4361555769133538
  0.5329904657362000  0.5044624817665551  0.4361697757505585
  0.5660940389373180  0.7544134861810983  0.4360852774546695
  0.5660949561357883  0.2544132105017307  0.4360892469016224
  0.6655846923717372  0.0041524860517261  0.4361720491356837
  0.6655850336347313  0.5041536774615548  0.4361715208252962
  0.6979962826024535  0.7579999370039262  0.4364480785391258
  0.6979964782291501  0.2579995061362436  0.4364478347345228
  0.4998203319851856  0.7546070149213435  0.4362531934575770
  0.4998246204667217  0.2546142873477633  0.4363148683106041
  0.5992096360114106  0.0049186721628305  0.4360548005267363
  0.5992101189768889  0.5049196148584189  0.4360561351951948
  0.6324942995719807  0.7545577520959986  0.4360448260763915
  0.6324948540125866  0.2545574056333478  0.4360446215451810
  0.5330165131245812  0.8288654919395053  0.5638547720706327
  0.5330192123865585  0.3288634619115782  0.5638506646708613
  0.5661155152022173  0.5786950578973160  0.5639370146886609
  0.5661149176071397  0.0786931048596505  0.5639326787127810
  0.6656000308462028  0.8280839235362831  0.5638548203908079
  0.6656005863738435  0.3280846558290821  0.5638561377310284
  0.6980321825237574  0.5818895451314535  0.5636063234159515
  0.6980319551347913  0.0818890780066165  0.5636123763839944
  0.4998468361086444  0.5790933950134540  0.5637742984459942
  0.4998459127266109  0.0790937360190075  0.5637307244553108
  0.5992343860143913  0.8290413040088618  0.5639756344011795
  0.5992352912508909  0.3290414688388912  0.5639758459638669
  0.6325201208509086  0.5785885851583770  0.5639572027146719
  0.6325198071072500  0.0785878771175634  0.5639576724346276
  0.6980092125785083  0.9181840536976899  0.4364038395330618
  0.6980093660972566  0.4181842951842080  0.4364028998036799
  0.4998171288891590  0.9210303374855588  0.4362278707258355
  0.4998218402364287  0.4210179556286815  0.4362968139845078
  0.5329908763855744  0.6712344568190302  0.4361562903800241
  0.5329932181461111  0.1712346296521889  0.4361630916133463
  0.6324969006372664  0.9214864543758360  0.4360499479272173
  0.6324971209703177  0.4214883151110300  0.4360499882006661
  0.6655788107914723  0.6719892126117208  0.4361533344289776
  0.6655790245649519  0.1719881682111922  0.4361533166933499
  0.5660920476810284  0.9214040639420256  0.4360707428348617
  0.5660923955244282  0.4214046572505114  0.4360774018711991
  0.5992106301192049  0.6710532350483515  0.4360319917818328
  0.5992118612777471  0.1710527508130575  0.4360313382912940
  0.7237350704947093  0.9786839893083054  0.4367169281841499
  0.7237353129321402  0.4786835249359470  0.4367161857348447
  0.7237313016876240  0.8026606751625203  0.5631754714033654
  0.7237319216014650  0.3026580304649781  0.5631870924438319
  0.7237087497479335  0.6974054634605884  0.4368302260059096
  0.7237090292276280  0.1974058268785984  0.4368307448169814
  0.7237572547803950  0.0213822184839243  0.5633029083287681
  0.7237574854638031  0.5213843159463901  0.5632914509986621
  0.2759585500892864  0.0210795395388222  0.5688081776682877
  0.2757787821155807  0.5225873067401932  0.5655475430241459
  0.2763361920649913  0.1956438499045725  0.4265970896293027
  0.2758626525023755  0.6973229042066490  0.4381552769166469
  0.2762901826278163  0.3029054060768292  0.5735307078623102
  0.2758894422571521  0.8028702469248106  0.5631037887174011
  0.2758130226338733  0.9782120628136337  0.4379100106767336
  0.2762435843588639  0.4799797339381186  0.4270100009094608
  0.2389862604737579  0.3246437988771002  0.4986158124883887

             NaN             NaN             NaN
             NaN             NaN             NaN
             NaN             NaN             NaN
             NaN             NaN             NaN
             NaN             NaN             NaN
             NaN             NaN             NaN
             NaN             NaN             NaN
             NaN             NaN             NaN
             NaN             NaN             NaN
             NaN             NaN             NaN
             NaN             NaN             NaN
             NaN             NaN             NaN
             NaN             NaN             NaN
             NaN             NaN             NaN
             NaN             NaN             NaN
             NaN             NaN             NaN
             NaN             NaN             NaN
             NaN             NaN             NaN
             NaN             NaN             NaN
             NaN             NaN             NaN
             NaN             NaN             NaN
             NaN             NaN             NaN
             NaN             NaN             NaN
             NaN             NaN             NaN
             NaN             NaN             NaN
             NaN             NaN             NaN
             NaN             NaN             NaN
             NaN             NaN             NaN
             NaN             NaN             NaN
             NaN             NaN             NaN
             NaN             NaN             NaN
             NaN             NaN             NaN
             NaN             NaN             NaN
             NaN             NaN             NaN
             NaN             NaN             NaN
             NaN             NaN             NaN
             NaN             NaN             NaN
             NaN             NaN             NaN
             NaN             NaN             NaN
             NaN             NaN             NaN
             NaN             NaN             NaN
             NaN             NaN             NaN
             NaN             NaN             NaN
             NaN             NaN             NaN
             NaN             NaN             NaN
             NaN             NaN             NaN
             NaN             NaN             NaN
             NaN             NaN             NaN
             NaN             NaN             NaN
             NaN             NaN             NaN
             NaN             NaN             NaN
             NaN             NaN             NaN
             NaN             NaN             NaN
             NaN             NaN             NaN
             NaN             NaN             NaN
             NaN             NaN             NaN
             NaN             NaN             NaN
             NaN             NaN             NaN
             NaN             NaN             NaN
             NaN             NaN             NaN
             NaN             NaN             NaN
             NaN             NaN             NaN
             NaN             NaN             NaN
             NaN             NaN             NaN
             NaN             NaN             NaN
             NaN             NaN             NaN
             NaN             NaN             NaN
             NaN             NaN             NaN
             NaN             NaN             NaN
             NaN             NaN             NaN
             NaN             NaN             NaN
             NaN             NaN             NaN
             NaN             NaN             NaN
             NaN             NaN             NaN
             NaN             NaN             NaN
             NaN             NaN             NaN
             NaN             NaN             NaN
             NaN             NaN             NaN
             NaN             NaN             NaN
             NaN             NaN             NaN
             NaN             NaN             NaN
             NaN             NaN             NaN
             NaN             NaN             NaN
             NaN             NaN             NaN
             NaN             NaN             NaN
             NaN             NaN             NaN
             NaN             NaN             NaN
             NaN             NaN             NaN
             NaN             NaN             NaN
             NaN             NaN             NaN
             NaN             NaN             NaN
             NaN             NaN             NaN
             NaN             NaN             NaN
             NaN             NaN             NaN
             NaN             NaN             NaN
             NaN             NaN             NaN
             NaN             NaN             NaN
             NaN             NaN             NaN
             NaN             NaN             NaN
             NaN             NaN             NaN
             NaN             NaN             NaN
             NaN             NaN             NaN
             NaN             NaN             NaN
             NaN             NaN             NaN
             NaN             NaN             NaN
             NaN             NaN             NaN
             NaN             NaN             NaN
             NaN             NaN             NaN
             NaN             NaN             NaN
             NaN             NaN             NaN
             NaN             NaN             NaN
             NaN             NaN             NaN
             NaN             NaN             NaN
             NaN             NaN             NaN
             NaN             NaN             NaN
             NaN             NaN             NaN
             NaN             NaN             NaN
             NaN             NaN             NaN
             NaN             NaN             NaN
             NaN             NaN             NaN
             NaN             NaN             NaN
