C    H    Li                            
   1.0000000000000000     
    37.2234382628999967    0.0000000000000000    0.0000000000000000
     0.0000000000000000    8.5469398498999993    0.0000000000000000
     0.0000000000000000    0.0000000000000000   27.8030738831000015
   C    H    Li
   104    16     1
Direct
  0.4663374634390081  0.0050057691171366  0.4364978923776977
  0.4663356954655793  0.5049414318020394  0.4366338944097253
  0.4331752606046909  0.2550333781718065  0.4368590020537985
  0.4331514818557026  0.7548988316370419  0.4364856569433295
  0.3335881983772498  0.0041722887770224  0.4359159259742914
  0.3335597321243273  0.5052863831512696  0.4347342843378200
  0.3012643807627464  0.2571900423697543  0.4290414238647610
  0.3011678538763599  0.7583241023339471  0.4375055372384765
  0.4000588341011068  0.0050900515386272  0.4365348230195038
  0.4000275125758799  0.5051158064378802  0.4368232966282889
  0.3668099681436412  0.2548734290040489  0.4360952382047328
  0.3667962423740896  0.7549372342326900  0.4364565069497176
  0.4663172176465735  0.9951810875406545  0.5633544140013642
  0.4663200907100158  0.4951387307952930  0.5634853121980286
  0.4331521709448180  0.2451108642728730  0.5631625052553978
  0.4331168996665412  0.7451836909434132  0.5633844978701913
  0.3334784589161692  0.9947972953871906  0.5641461317522749
  0.3335515918169576  0.4953490416514122  0.5649050408208114
  0.3011781669629413  0.2409401946275241  0.5699416732558508
  0.3010776881484185  0.7417947672711324  0.5630432873879164
  0.3999962298796952  0.9949948363210893  0.5629965702042564
  0.4000299136945150  0.4949203697505489  0.5634616923983783
  0.3668001473140833  0.2449268000871547  0.5638023702818715
  0.3667414563481781  0.7449313175942257  0.5632823397598757
  0.4663320584336007  0.1717841141007846  0.4366196483688148
  0.4663292279795055  0.6717101292470443  0.4364827523786078
  0.4331664399441613  0.4216811776290147  0.4368585667761110
  0.4331475561894850  0.9217855010082233  0.4364812470025730
  0.3335950323850466  0.1714261030396675  0.4343818467113953
  0.3335836446708863  0.6725031323345696  0.4361517580017376
  0.3011832687378053  0.4194902167805147  0.4294852396718644
  0.3011526963392896  0.9184554648980414  0.4372922765720416
  0.4000286402163475  0.1716718637062428  0.4367612826831775
  0.4000500350002397  0.6716628932097426  0.4365459327159701
  0.3667782837710056  0.4218949154682521  0.4361622613897985
  0.3667908182695930  0.9217517598720170  0.4363954907857801
  0.3011333882420557  0.0796962614640734  0.5680858778376014
  0.3010639393018683  0.5814450623304250  0.5643280169370180
  0.4663225356293851  0.3284129425201183  0.5634006740000387
  0.4663084666527793  0.8284491435305815  0.5634646650384779
  0.3667313312578150  0.0780817001854822  0.5634610161509672
  0.3667698731114197  0.5781869706539344  0.5636508305907458
  0.3336116196396994  0.3280574552002249  0.5660327650938709
  0.3334885152446440  0.8274271614801413  0.5632928468089027
  0.4331323691577671  0.0783997851614782  0.5631234432085667
  0.4331323290742213  0.5783490994020551  0.5634459669860312
  0.4000250201128590  0.3283561173726698  0.5632753853141057
  0.3999953198485122  0.8283363956133846  0.5631888402490434
  0.5326559112317689  0.9951041420520639  0.5637330102666295
  0.5326519775756712  0.4951031670759721  0.5637577961175769
  0.5657925924214159  0.7451533110752614  0.5638371426711722
  0.5657968277035654  0.2451517890476453  0.5638317862812221
  0.6653170600247149  0.9954231986132311  0.5637954840027304
  0.6653159876466975  0.4954279069266478  0.5637923342601929
  0.6977231382438542  0.7415981632744996  0.5634951988785519
  0.6977222983141891  0.2415975115572492  0.5635025329319437
  0.4994632851960660  0.7451184602839113  0.5636146308775509
  0.4994790056097657  0.2450886700067453  0.5635391819126196
  0.5989123053622970  0.9947205261688783  0.5638985045991993
  0.5989100917004284  0.4947300606386665  0.5639001806323666
  0.6322038697993869  0.7450385012357614  0.5639267803769800
  0.6322038159555017  0.2450390103396732  0.5639289423976495
  0.5326607297329785  0.0051099387005060  0.4362414986451794
  0.5326660496881620  0.5050917005490199  0.4362678833015047
  0.5657962873601740  0.7550268193674635  0.4361590342233323
  0.5658000151043180  0.2550322967834358  0.4361706526615615
  0.6653073541834981  0.0047588938849973  0.4362072785576225
  0.6653086619827130  0.5047612697305864  0.4362066513221300
  0.6977116018074698  0.7586000035101343  0.4365044858432896
  0.6977118393768877  0.2585976244012705  0.4365027705758445
  0.4994766692141180  0.7550602772820793  0.4363643004974594
  0.4994889310459325  0.2551174859370141  0.4364812500086078
  0.5989060320903572  0.0054734252383352  0.4360990040790336
  0.5989092574011994  0.5054750765372132  0.4361030500031854
  0.6322008747626402  0.7551719566184500  0.4360738799888261
  0.6322013595064355  0.2551686386725631  0.4360734416639706
  0.5326560431002507  0.8284028897638631  0.5637475021483563
  0.5326613186686895  0.3283896730113649  0.5637402049717050
  0.5657987009364268  0.5782078469208513  0.5638595173031452
  0.5657979234412259  0.0782051565949840  0.5638479132644727
  0.6653073681257523  0.8276131148766823  0.5638148393754900
  0.6653067631597116  0.3276127890811577  0.5638165481850378
  0.6977451542310237  0.5813905913901275  0.5635487624662782
  0.6977455129924990  0.0813887120543228  0.5635575942784362
  0.4994776535639660  0.5784672305468457  0.5636468684990210
  0.4994775836199507  0.0784817410243395  0.5635548092448709
  0.5989146420015038  0.8284946387742952  0.5639250175827230
  0.5989154451234235  0.3284920529308234  0.5639267856785890
  0.6322113857867783  0.5781268331615591  0.5639171893603259
  0.6322112439948792  0.0781216782372163  0.5639191347847600
  0.6977308647275487  0.9188210028815613  0.4364471998047196
  0.6977311462932165  0.4188250064289016  0.4364445205015922
  0.4994776495104915  0.9217302079811633  0.4363380679538303
  0.4994890261214608  0.4216792136110904  0.4364562834201920
  0.5326606321241489  0.6717928967688692  0.4362458409086658
  0.5326676977666102  0.1718080425084136  0.4362670439940742
  0.6322045687488900  0.9220731654958070  0.4360821155282141
  0.6322047379705776  0.4220767095566360  0.4360828278670781
  0.6652989066752416  0.6726066952439972  0.4361879538412062
  0.6653002686829066  0.1726050357343538  0.4361876212184864
  0.5657956031085526  0.9220171346001439  0.4361388115171615
  0.5657985208533903  0.4220087020509167  0.4361546498074216
  0.5989070775283479  0.6717107272147126  0.4360725997609965
  0.5989109146417423  0.1717084185818560  0.4360721905268363
  0.7234562169186269  0.9793439678606917  0.4368035064726871
  0.7234568332039115  0.4793450369367327  0.4367994031106080
  0.7234380409108745  0.8022043850276137  0.5630705211125917
  0.7234372190684957  0.3022046927218048  0.5630825202093076
  0.7234252751908674  0.6979953116862846  0.4369301472008455
  0.7234259470122439  0.1979962716753611  0.4369277958481333
  0.7234727274807304  0.0208777215250175  0.5632049474388416
  0.7234719578043917  0.5208767291554883  0.5631907704802409
  0.2756112409304380  0.0186774797075853  0.5717336578063342
  0.2750448045012621  0.5223835554675273  0.5665025229507173
  0.2761208685751675  0.1955901397453673  0.4218189146264867
  0.2754466828588453  0.6978165028558035  0.4392582927027259
  0.2758992517924593  0.3005523402419638  0.5785594485140713
  0.2753592935236119  0.8023557708514844  0.5622352675438776
  0.2754022319693495  0.9788449490328793  0.4388075337878224
  0.2760123425733577  0.4810489319158379  0.4225051364578947
  0.2846706497822831  0.3301397572979176  0.5016358284086825

             NaN             NaN             NaN
             NaN             NaN             NaN
             NaN             NaN             NaN
             NaN             NaN             NaN
             NaN             NaN             NaN
             NaN             NaN             NaN
             NaN             NaN             NaN
             NaN             NaN             NaN
             NaN             NaN             NaN
             NaN             NaN             NaN
             NaN             NaN             NaN
             NaN             NaN             NaN
             NaN             NaN             NaN
             NaN             NaN             NaN
             NaN             NaN             NaN
             NaN             NaN             NaN
             NaN             NaN             NaN
             NaN             NaN             NaN
             NaN             NaN             NaN
             NaN             NaN             NaN
             NaN             NaN             NaN
             NaN             NaN             NaN
             NaN             NaN             NaN
             NaN             NaN             NaN
             NaN             NaN             NaN
             NaN             NaN             NaN
             NaN             NaN             NaN
             NaN             NaN             NaN
             NaN             NaN             NaN
             NaN             NaN             NaN
             NaN             NaN             NaN
             NaN             NaN             NaN
             NaN             NaN             NaN
             NaN             NaN             NaN
             NaN             NaN             NaN
             NaN             NaN             NaN
             NaN             NaN             NaN
             NaN             NaN             NaN
             NaN             NaN             NaN
             NaN             NaN             NaN
             NaN             NaN             NaN
             NaN             NaN             NaN
             NaN             NaN             NaN
             NaN             NaN             NaN
             NaN             NaN             NaN
             NaN             NaN             NaN
             NaN             NaN             NaN
             NaN             NaN             NaN
             NaN             NaN             NaN
             NaN             NaN             NaN
             NaN             NaN             NaN
             NaN             NaN             NaN
             NaN             NaN             NaN
             NaN             NaN             NaN
             NaN             NaN             NaN
             NaN             NaN             NaN
             NaN             NaN             NaN
             NaN             NaN             NaN
             NaN             NaN             NaN
             NaN             NaN             NaN
             NaN             NaN             NaN
             NaN             NaN             NaN
             NaN             NaN             NaN
             NaN             NaN             NaN
             NaN             NaN             NaN
             NaN             NaN             NaN
             NaN             NaN             NaN
             NaN             NaN             NaN
             NaN             NaN             NaN
             NaN             NaN             NaN
             NaN             NaN             NaN
             NaN             NaN             NaN
             NaN             NaN             NaN
             NaN             NaN             NaN
             NaN             NaN             NaN
             NaN             NaN             NaN
             NaN             NaN             NaN
             NaN             NaN             NaN
             NaN             NaN             NaN
             NaN             NaN             NaN
             NaN             NaN             NaN
             NaN             NaN             NaN
             NaN             NaN             NaN
             NaN             NaN             NaN
             NaN             NaN             NaN
             NaN             NaN             NaN
             NaN             NaN             NaN
             NaN             NaN             NaN
             NaN             NaN             NaN
             NaN             NaN             NaN
             NaN             NaN             NaN
             NaN             NaN             NaN
             NaN             NaN             NaN
             NaN             NaN             NaN
             NaN             NaN             NaN
             NaN             NaN             NaN
             NaN             NaN             NaN
             NaN             NaN             NaN
             NaN             NaN             NaN
             NaN             NaN             NaN
             NaN             NaN             NaN
             NaN             NaN             NaN
             NaN             NaN             NaN
             NaN             NaN             NaN
             NaN             NaN             NaN
             NaN             NaN             NaN
             NaN             NaN             NaN
             NaN             NaN             NaN
             NaN             NaN             NaN
             NaN             NaN             NaN
             NaN             NaN             NaN
             NaN             NaN             NaN
             NaN             NaN             NaN
             NaN             NaN             NaN
             NaN             NaN             NaN
             NaN             NaN             NaN
             NaN             NaN             NaN
             NaN             NaN             NaN
             NaN             NaN             NaN
             NaN             NaN             NaN
             NaN             NaN             NaN
