C    H    Li                            
   1.0000000000000000     
    37.2234382628999967    0.0000000000000000    0.0000000000000000
     0.0000000000000000    8.5469398498999993    0.0000000000000000
     0.0000000000000000    0.0000000000000000   27.8030738831000015
   C    H    Li
   104    16     1
Direct
  0.4664401356270401  0.0046986073949726  0.4364452581326159
  0.4664369585980679  0.5046314673189888  0.4365662639873072
  0.4332748920929013  0.2547321732567803  0.4367618449313606
  0.4332523292861343  0.7546091130473507  0.4364100664215716
  0.3336900169191805  0.0038984966842914  0.4357898232114093
  0.3336561632884271  0.5049984753105818  0.4347813889872171
  0.3013372690345211  0.2569127629771793  0.4295420610116243
  0.3012715690201349  0.7580337185609403  0.4370942210396353
  0.4001590926285155  0.0048089431797289  0.4364401103140787
  0.4001241993942305  0.5048245511640634  0.4367216026675758
  0.3669018113899233  0.2545845977320824  0.4360873861126610
  0.3668989966340720  0.7546587746971206  0.4363114222562470
  0.4664051070180303  0.9954688105018389  0.5634251357956155
  0.4664091057665975  0.4954206942341339  0.5635514857950064
  0.4332367529502585  0.2454007918047376  0.5632840403438563
  0.4332027828623983  0.7454703285770048  0.5634704646399509
  0.3335524327170092  0.9951412663784668  0.5641315245646569
  0.3336374750826611  0.4956729264461278  0.5650141509253869
  0.3012337998512792  0.2413326258768764  0.5695447635109717
  0.3011611686423734  0.7421395075341519  0.5632834544900169
  0.4000749656427176  0.9952945747609995  0.5631081584192494
  0.4001148602515544  0.4952124065454173  0.5635891417978068
  0.3668729574217368  0.2452570042989118  0.5638674047641956
  0.3668222106585575  0.7452467851564060  0.5634076299550167
  0.4664345543104716  0.1714721253240326  0.4365504488800860
  0.4664303351813287  0.6714071759063575  0.4364302648821993
  0.4332652453720062  0.4213819676095896  0.4367609277739412
  0.4332487697988868  0.9214958645341325  0.4364046869493053
  0.3336887242399670  0.1711441460993660  0.4344941605234687
  0.3336881368517643  0.6722018398674807  0.4359846850047508
  0.3012540780073151  0.4191891899396796  0.4299075844188083
  0.3012569384597580  0.9181263689445651  0.4369077250062082
  0.4001258667949626  0.1713920941878118  0.4366682404458147
  0.4001502409560165  0.6713734611046642  0.4364445098206020
  0.3668712068878890  0.4216124386868939  0.4361378738572526
  0.3668932306498706  0.9214716279719588  0.4362605675433761
  0.3011975569063786  0.0800827746825600  0.5678131611241770
  0.3011563103388403  0.5817750484686691  0.5645585569069010
  0.4664106263510466  0.3286944725696558  0.5634819961903078
  0.4663968768471528  0.8287263669537344  0.5635230070211393
  0.3668112228216877  0.0784075249686592  0.5635216071020150
  0.3668557265678438  0.5784825548658070  0.5637951949579345
  0.3336888449940706  0.3284163031127039  0.5659741812641569
  0.3335741288164223  0.8277486390054941  0.5634020730896390
  0.4332174853369021  0.0786907790783234  0.5632315541194437
  0.4332199936812260  0.5786283301894274  0.5635391082268295
  0.4001085200678421  0.3286568895990752  0.5634148881641414
  0.4000816806664800  0.8286290012484734  0.5632950784085378
  0.5327478970056987  0.9953876397847101  0.5637576786646773
  0.5327454974070802  0.4953884425292420  0.5637777247843584
  0.5658851193179435  0.7454389864361231  0.5638380542625346
  0.5658892575071963  0.2454348719257444  0.5638363899657237
  0.6654076725591012  0.9957089830752825  0.5637886900961571
  0.6654067352467167  0.4957134301646652  0.5637855807382118
  0.6978132746078695  0.7418848533654138  0.5635043622816256
  0.6978123389172165  0.2418844547806271  0.5635114362603512
  0.4995549973279999  0.7453950207838201  0.5636483960241913
  0.4995707300811051  0.2453715183679307  0.5635940677448186
  0.5990026533518760  0.9949961095041798  0.5638886503227637
  0.5990007925360908  0.4950050871648861  0.5638902400973577
  0.6322961361383002  0.7453154065412045  0.5639103901418632
  0.6322960060568695  0.2453154484440811  0.5639126907259555
  0.5327655815642901  0.0047823549670889  0.4362239738966724
  0.5327705876429191  0.5047643415567652  0.4362448052726720
  0.5659002358575599  0.7547019555556187  0.4361543895984510
  0.5659045713485891  0.2547081405308121  0.4361642206212933
  0.6654104902675845  0.0044371647498273  0.4362080930245523
  0.6654118133844924  0.5044399093533775  0.4362079401766981
  0.6978137976423904  0.7582756928919491  0.4364952701712267
  0.6978140756154397  0.2582732603990931  0.4364951216447747
  0.4995794277836309  0.7547419902655534  0.4363361572467683
  0.4995929962217289  0.2547953229898584  0.4364303307213732
  0.5990086741203459  0.0051582476171265  0.4361019964510013
  0.5990118856753412  0.5051600261861995  0.4361055684885918
  0.6323044263433195  0.7548556373094256  0.4360797309446014
  0.6323050748071742  0.2548526025159336  0.4360805270774988
  0.5327472236510915  0.8286886123709014  0.5637657216116629
  0.5327533967589095  0.3286780227632862  0.5637652907397985
  0.5658895881964764  0.5784894969623078  0.5638636338692113
  0.5658879062877211  0.0784846281567970  0.5638547051985002
  0.6653982312949110  0.8278997349825318  0.5638091809367595
  0.6653975712494123  0.3278991853195001  0.5638106976341997
  0.6978346973540209  0.5816796679635474  0.5635545128198958
  0.6978350760280071  0.0816773810957018  0.5635632302484945
  0.4995676530943423  0.5787416761208343  0.5636822285795572
  0.4995672380402838  0.0787638328987601  0.5636067636282006
  0.5990048075930539  0.8287710635667146  0.5639129377929402
  0.5990056289647382  0.3287675560898047  0.5639154352338511
  0.6323010034626746  0.5784039487912628  0.5639015974515966
  0.6323007156461791  0.0783987867847991  0.5639035779416847
  0.6978328649014630  0.9184930906087841  0.4364426700835885
  0.6978332664923572  0.4184966107386879  0.4364413795329681
  0.4995809461087695  0.9214139025515204  0.4363098929415522
  0.4995920203266837  0.4213626583864601  0.4364063294775542
  0.5327649802818504  0.6714636384362395  0.4362289129070333
  0.5327733194797970  0.1714775128306885  0.4362454291519556
  0.6323065928875875  0.9217590658586683  0.4360871230646878
  0.6323068277540735  0.4217625370431218  0.4360885019529236
  0.6654010565492907  0.6722803552501277  0.4361861191901271
  0.6654025331113687  0.1722789930505099  0.4361866505620444
  0.5658995735054555  0.9216917067124588  0.4361313043508776
  0.5659023898841070  0.4216839720057583  0.4361448115801480
  0.5990096945955354  0.6713947670577471  0.4360775688419409
  0.5990139582345499  0.1713924988099447  0.4360783311095863
  0.7235612726980154  0.9790005150808652  0.4367835181474924
  0.7235618907314127  0.4790015836789596  0.4367813069021382
  0.7235281103433219  0.8024976327079089  0.5630959900102271
  0.7235270995977732  0.3024980721162339  0.5631081635988956
  0.7235275243198211  0.6976655830051648  0.4369063506155305
  0.7235281968346249  0.1976662302216719  0.4369065054275513
  0.7235643116511096  0.0211774586282230  0.5632321465251050
  0.7235635473955093  0.5211765719396236  0.5632175536758460
  0.2756627932825762  0.0190539297737594  0.5713387396713101
  0.2751411237338220  0.5227560666169053  0.5669153130517776
  0.2761583426770198  0.1952788094139613  0.4225084815889015
  0.2755344532497075  0.6975775851652012  0.4385742013244981
  0.2759429108760319  0.3009029925373354  0.5782038887955490
  0.2754431010068056  0.8026838479773554  0.5626165790115083
  0.2754879663248254  0.9784237817019338  0.4381714723330265
  0.2760563730144402  0.4807111136740892  0.4230150034799389
  0.2829216187132205  0.3307944217040503  0.5015501487088230

             NaN             NaN             NaN
             NaN             NaN             NaN
             NaN             NaN             NaN
             NaN             NaN             NaN
             NaN             NaN             NaN
             NaN             NaN             NaN
             NaN             NaN             NaN
             NaN             NaN             NaN
             NaN             NaN             NaN
             NaN             NaN             NaN
             NaN             NaN             NaN
             NaN             NaN             NaN
             NaN             NaN             NaN
             NaN             NaN             NaN
             NaN             NaN             NaN
             NaN             NaN             NaN
             NaN             NaN             NaN
             NaN             NaN             NaN
             NaN             NaN             NaN
             NaN             NaN             NaN
             NaN             NaN             NaN
             NaN             NaN             NaN
             NaN             NaN             NaN
             NaN             NaN             NaN
             NaN             NaN             NaN
             NaN             NaN             NaN
             NaN             NaN             NaN
             NaN             NaN             NaN
             NaN             NaN             NaN
             NaN             NaN             NaN
             NaN             NaN             NaN
             NaN             NaN             NaN
             NaN             NaN             NaN
             NaN             NaN             NaN
             NaN             NaN             NaN
             NaN             NaN             NaN
             NaN             NaN             NaN
             NaN             NaN             NaN
             NaN             NaN             NaN
             NaN             NaN             NaN
             NaN             NaN             NaN
             NaN             NaN             NaN
             NaN             NaN             NaN
             NaN             NaN             NaN
             NaN             NaN             NaN
             NaN             NaN             NaN
             NaN             NaN             NaN
             NaN             NaN             NaN
             NaN             NaN             NaN
             NaN             NaN             NaN
             NaN             NaN             NaN
             NaN             NaN             NaN
             NaN             NaN             NaN
             NaN             NaN             NaN
             NaN             NaN             NaN
             NaN             NaN             NaN
             NaN             NaN             NaN
             NaN             NaN             NaN
             NaN             NaN             NaN
             NaN             NaN             NaN
             NaN             NaN             NaN
             NaN             NaN             NaN
             NaN             NaN             NaN
             NaN             NaN             NaN
             NaN             NaN             NaN
             NaN             NaN             NaN
             NaN             NaN             NaN
             NaN             NaN             NaN
             NaN             NaN             NaN
             NaN             NaN             NaN
             NaN             NaN             NaN
             NaN             NaN             NaN
             NaN             NaN             NaN
             NaN             NaN             NaN
             NaN             NaN             NaN
             NaN             NaN             NaN
             NaN             NaN             NaN
             NaN             NaN             NaN
             NaN             NaN             NaN
             NaN             NaN             NaN
             NaN             NaN             NaN
             NaN             NaN             NaN
             NaN             NaN             NaN
             NaN             NaN             NaN
             NaN             NaN             NaN
             NaN             NaN             NaN
             NaN             NaN             NaN
             NaN             NaN             NaN
             NaN             NaN             NaN
             NaN             NaN             NaN
             NaN             NaN             NaN
             NaN             NaN             NaN
             NaN             NaN             NaN
             NaN             NaN             NaN
             NaN             NaN             NaN
             NaN             NaN             NaN
             NaN             NaN             NaN
             NaN             NaN             NaN
             NaN             NaN             NaN
             NaN             NaN             NaN
             NaN             NaN             NaN
             NaN             NaN             NaN
             NaN             NaN             NaN
             NaN             NaN             NaN
             NaN             NaN             NaN
             NaN             NaN             NaN
             NaN             NaN             NaN
             NaN             NaN             NaN
             NaN             NaN             NaN
             NaN             NaN             NaN
             NaN             NaN             NaN
             NaN             NaN             NaN
             NaN             NaN             NaN
             NaN             NaN             NaN
             NaN             NaN             NaN
             NaN             NaN             NaN
             NaN             NaN             NaN
             NaN             NaN             NaN
             NaN             NaN             NaN
             NaN             NaN             NaN
             NaN             NaN             NaN
