C    H    Li                            
   1.0000000000000000     
    37.0938796996999969    0.0000000000000000    0.0000000000000000
     0.0000000000000000    7.3546423911999996    0.0000000000000000
     0.0000000000000000    0.0000000000000000   27.8030738831000015
   C    H    Li
   108    12     1
Direct
  0.4993970306130291  0.8333827687154164  0.4366666082826242
  0.7302008953675017  0.8332849842526069  0.5630275495880147
  0.3839345959812603  0.8333831546240940  0.4362188595110573
  0.6148818480585152  0.8333787050822840  0.4370838656686489
  0.4416654500188136  0.6667195720684800  0.4363827414926760
  0.6726689664964258  0.6667071027247721  0.4368482940266844
  0.3262248911045567  0.6667485927403505  0.4362605646281499
  0.5571329890780218  0.6667189792143031  0.4369625856910220
  0.4993971159141571  0.1667166217811258  0.4366639461074741
  0.7302024330077438  0.1666154805354101  0.5630276484292235
  0.3839264440215514  0.1667241797680732  0.4361958287286145
  0.6148818786336394  0.1667118316081214  0.4370833852552621
  0.4416655142252008  0.0000503828573436  0.4363830673142265
  0.6726689646102914  0.0000400567611032  0.4368482880162188
  0.3262247173494821  0.0000204263401608  0.4362615651782579
  0.5571329869578937  0.0000492295381393  0.4369625349482881
  0.4993970889657557  0.5000493652938793  0.4366639193483191
  0.7302024707614744  0.4999545554438735  0.5630275828597815
  0.3839263672200299  0.5000419854484456  0.4361955554926431
  0.6148818808774522  0.5000456152410085  0.4370834225239996
  0.4416646016571515  0.3333853035883974  0.4363763963651967
  0.6726688333703970  0.3333735560933874  0.4368484382979915
  0.3262120386731964  0.3333842480058801  0.4362135896511548
  0.5571328187248767  0.3333845403259072  0.4369608307401092
  0.2689607322066923  0.8333868988208102  0.4363981610674273
  0.4996365517576382  0.8332762513588545  0.5631310498530465
  0.3840241291472767  0.8332777116693610  0.5624229779722048
  0.6151443344162024  0.8332717131972065  0.5637460030845413
  0.4418421205990528  0.6665917022268744  0.5627361112112831
  0.6728592121529881  0.6666088314586146  0.5636797097876975
  0.3261312532393313  0.6664585609407616  0.5624356121168602
  0.5573990689063817  0.6666081399469245  0.5635190508719572
  0.2690310063488986  0.1665981275334050  0.4361389250041448
  0.4996362024495859  0.1665988626680597  0.5631229678167246
  0.3840003172904056  0.1666515593296419  0.5623365529681997
  0.6151430411987335  0.1666021924320625  0.5637454548453219
  0.4418422674758576  0.9999623291703083  0.5627351815175606
  0.6728592097444562  0.9999440045856421  0.5636797180422730
  0.3261318968599891  0.0000883305861915  0.5624351709722843
  0.5573989400216678  0.9999364070501792  0.5635195470096421
  0.2690312574455660  0.5001757478855657  0.4361379163813989
  0.4996363450353828  0.4999544558582094  0.5631226476720815
  0.3839997627906051  0.4999016310777845  0.5623352576026496
  0.6151430643122874  0.4999411863491178  0.5637453566813508
  0.4418480661933305  0.3332775235245586  0.5627048867891835
  0.6728589762026468  0.3332764557910615  0.5636792348795672
  0.3259997846582175  0.3332747271110539  0.5621177420551793
  0.5573984531494779  0.3332726246466895  0.5635163825931799
  0.4609094255346359  0.8333847990885781  0.4364618567345731
  0.6918032229887836  0.8333716724402795  0.4366890031348905
  0.3453455366452619  0.8333855703365196  0.4362308714516243
  0.5763714400275695  0.8333824505710284  0.4370189461373071
  0.4031521340095749  0.6667180038023394  0.4362317080486667
  0.6340975777047630  0.6667103891597389  0.4370388171264208
  0.2872928972246619  0.6670809401185591  0.4363132338718222
  0.5186432374729445  0.6667185265662096  0.4367581157537003
  0.4609091059805930  0.1667184330184515  0.4364562977844684
  0.6918030235324092  0.1667049689992992  0.4366893557133888
  0.3453322192405368  0.1667035290025714  0.4361723994314428
  0.5763711691233122  0.1667154847004156  0.4370178243423816
  0.4031522340141907  0.0000492049086742  0.4362320957318684
  0.6340975681481683  0.0000425834058596  0.4370387930193143
  0.2872924749721085  0.9996897469072816  0.4363146703277377
  0.5186432292157095  0.0000479768799949  0.4367581045202338
  0.4609090851546331  0.5000508627934394  0.4364560967244275
  0.6918030237100159  0.5000384164256082  0.4366893575737685
  0.3453319825310336  0.5000653142093041  0.4361722350447336
  0.5763711849026618  0.5000492053478159  0.4370178776528579
  0.4031485980466241  0.3333834342560259  0.4362184676882043
  0.6340973872710349  0.3333764592697850  0.4370384253410716
  0.2872468032705754  0.3333873632967745  0.4361579557562153
  0.5186427155331249  0.3333831553406353  0.4367559410019989
  0.4803709881664947  0.9999553719579775  0.5630006167358750
  0.7117482662567506  0.9999543259015293  0.5633484485862054
  0.3647784427249072  0.0000650443345839  0.5623143765897528
  0.5959193644289529  0.9999394364034333  0.5637092220748006
  0.4225777402489068  0.8332766823477179  0.5626403344248885
  0.6537246123007736  0.8332730651770562  0.5637587735808162
  0.3071177359897239  0.8332733769774975  0.5630013011546570
  0.5381509841905243  0.8332715997190806  0.5634138486742590
  0.4803717343544389  0.3332775641619188  0.5629909742619432
  0.7117500547807601  0.3332846097040013  0.5633485876549118
  0.3646679428195488  0.3332760285482081  0.5622346287330050
  0.5959198124526366  0.3332699867155169  0.5637084129362673
  0.4225670642875161  0.1666260108831458  0.5625872682924534
  0.6537225504028978  0.1666008376046546  0.5637581051431416
  0.3068198810175718  0.1664148911878516  0.5622535180889593
  0.5381507149843513  0.1665928141706393  0.5634095026895667
  0.4803708881542688  0.6665984330784057  0.5630008438677366
  0.7117482795332755  0.6666147187837991  0.5633484265660599
  0.3647780358145888  0.6664896758386083  0.5623144226037511
  0.5959196611969038  0.6666008294037549  0.5637090677805978
  0.4225664274573078  0.4999283308458662  0.5625868797231879
  0.6537225672136396  0.4999444013785391  0.5637580896175731
  0.3068195166146009  0.5001334198956864  0.5622542098500418
  0.5381508585076303  0.4999524694430734  0.5634084557599494
  0.2683050373284903  0.8332736056565377  0.5645491618746609
  0.2678105967973573  0.5011495162394869  0.5634010675396739
  0.2678107056630173  0.1654035909491284  0.5634033001685016
  0.7306857583841835  0.8333679861194200  0.4363665474089389
  0.7306857584349884  0.5000352457439803  0.4363674119753746
  0.7306857619305418  0.1667007173122887  0.4363674171289014
  0.2499093371814104  0.6671743626511129  0.5651539251905130
  0.2488377743381061  0.3332775508897514  0.5628110509361390
  0.2499091675078912  0.9993771893750378  0.5651539640307358
  0.7491438407019472  0.0000342631720124  0.4362228473189353
  0.7491436970271821  0.3333674964129349  0.4362246156333419
  0.7491438378980159  0.6667007083372435  0.4362228362878356
  0.2394556226372350  0.8333860752161806  0.4369279044358557
  0.2393688067038628  0.5015419349299083  0.4344838926721807
  0.2393681647129428  0.1652388320513472  0.4344685713195191
  0.7596688825194220  0.8332874526976963  0.5622906111589524
  0.7596702776797242  0.4999587014862976  0.5622898605125742
  0.7596702169848880  0.1666161611791154  0.5622898681848458
  0.2203444343148942  0.6688955353496143  0.5669277515999697
  0.2210767386146278  0.3332862356630535  0.5773831889471858
  0.2203441402429179  0.9976560424191572  0.5669378622187684
  0.7786235839178645  0.0000360933281090  0.4360062171347253
  0.7786234731506259  0.3333692598121277  0.4360076110239899
  0.7786235825531325  0.6667024138692015  0.4360061866570044
  0.2061193211049245  0.3329537023383497  0.5031973942357825

             NaN             NaN             NaN
             NaN             NaN             NaN
             NaN             NaN             NaN
             NaN             NaN             NaN
             NaN             NaN             NaN
             NaN             NaN             NaN
             NaN             NaN             NaN
             NaN             NaN             NaN
             NaN             NaN             NaN
             NaN             NaN             NaN
             NaN             NaN             NaN
             NaN             NaN             NaN
             NaN             NaN             NaN
             NaN             NaN             NaN
             NaN             NaN             NaN
             NaN             NaN             NaN
             NaN             NaN             NaN
             NaN             NaN             NaN
             NaN             NaN             NaN
             NaN             NaN             NaN
             NaN             NaN             NaN
             NaN             NaN             NaN
             NaN             NaN             NaN
             NaN             NaN             NaN
             NaN             NaN             NaN
             NaN             NaN             NaN
             NaN             NaN             NaN
             NaN             NaN             NaN
             NaN             NaN             NaN
             NaN             NaN             NaN
             NaN             NaN             NaN
             NaN             NaN             NaN
             NaN             NaN             NaN
             NaN             NaN             NaN
             NaN             NaN             NaN
             NaN             NaN             NaN
             NaN             NaN             NaN
             NaN             NaN             NaN
             NaN             NaN             NaN
             NaN             NaN             NaN
             NaN             NaN             NaN
             NaN             NaN             NaN
             NaN             NaN             NaN
             NaN             NaN             NaN
             NaN             NaN             NaN
             NaN             NaN             NaN
             NaN             NaN             NaN
             NaN             NaN             NaN
             NaN             NaN             NaN
             NaN             NaN             NaN
             NaN             NaN             NaN
             NaN             NaN             NaN
             NaN             NaN             NaN
             NaN             NaN             NaN
             NaN             NaN             NaN
             NaN             NaN             NaN
             NaN             NaN             NaN
             NaN             NaN             NaN
             NaN             NaN             NaN
             NaN             NaN             NaN
             NaN             NaN             NaN
             NaN             NaN             NaN
             NaN             NaN             NaN
             NaN             NaN             NaN
             NaN             NaN             NaN
             NaN             NaN             NaN
             NaN             NaN             NaN
             NaN             NaN             NaN
             NaN             NaN             NaN
             NaN             NaN             NaN
             NaN             NaN             NaN
             NaN             NaN             NaN
             NaN             NaN             NaN
             NaN             NaN             NaN
             NaN             NaN             NaN
             NaN             NaN             NaN
             NaN             NaN             NaN
             NaN             NaN             NaN
             NaN             NaN             NaN
             NaN             NaN             NaN
             NaN             NaN             NaN
             NaN             NaN             NaN
             NaN             NaN             NaN
             NaN             NaN             NaN
             NaN             NaN             NaN
             NaN             NaN             NaN
             NaN             NaN             NaN
             NaN             NaN             NaN
             NaN             NaN             NaN
             NaN             NaN             NaN
             NaN             NaN             NaN
             NaN             NaN             NaN
             NaN             NaN             NaN
             NaN             NaN             NaN
             NaN             NaN             NaN
             NaN             NaN             NaN
             NaN             NaN             NaN
             NaN             NaN             NaN
             NaN             NaN             NaN
             NaN             NaN             NaN
             NaN             NaN             NaN
             NaN             NaN             NaN
             NaN             NaN             NaN
             NaN             NaN             NaN
             NaN             NaN             NaN
             NaN             NaN             NaN
             NaN             NaN             NaN
             NaN             NaN             NaN
             NaN             NaN             NaN
             NaN             NaN             NaN
             NaN             NaN             NaN
             NaN             NaN             NaN
             NaN             NaN             NaN
             NaN             NaN             NaN
             NaN             NaN             NaN
             NaN             NaN             NaN
             NaN             NaN             NaN
             NaN             NaN             NaN
             NaN             NaN             NaN
             NaN             NaN             NaN
             NaN             NaN             NaN
