C    H    Li                            
   1.0000000000000000     
    37.0938796996999969    0.0000000000000000    0.0000000000000000
     0.0000000000000000    7.3546423911999996    0.0000000000000000
     0.0000000000000000    0.0000000000000000   27.8030738831000015
   C    H    Li
   108    12     1
Direct
  0.4994501899703073  0.8333777872289705  0.4366722936569317
  0.7303107692011844  0.8332883274631564  0.5631035348857349
  0.3839943775439468  0.8333884429101561  0.4362127585520393
  0.6149290429023186  0.8333747136270671  0.4370198728068425
  0.4417215463643051  0.6667142242424117  0.4364158335211050
  0.6727167406945082  0.6667081902131512  0.4367768859879736
  0.3262878923861915  0.6667497459032710  0.4361478307425477
  0.5571817877454280  0.6667094117084506  0.4369224081462328
  0.4994502061961510  0.1667112475689185  0.4366676839485268
  0.7303122212117209  0.1666187400154465  0.5631036772886070
  0.3839865274357065  0.1667262414264038  0.4361902483025770
  0.6149290936953253  0.1667080012501704  0.4370195965424895
  0.4417216595198196  0.0000460436550590  0.4364159145682718
  0.6727167358519630  0.0000412544681714  0.4367768749353990
  0.3262873312448537  1.0000285386829262  0.4361465624295584
  0.5571819662130476  0.0000398962930713  0.4369223055657252
  0.4994501020201060  0.5000443166515324  0.4366676404067960
  0.7303122339669418  0.4999579264580899  0.5631036438397637
  0.3839865657108030  0.5000461911696263  0.4361903742969050
  0.6149290624219005  0.5000417073671474  0.4370195957497690
  0.4417205824915322  0.3333796999236021  0.4364091064237461
  0.6727166198239682  0.3333747754783702  0.4367770663371046
  0.3262751733193610  0.3333874769235805  0.4360919030264295
  0.5571818930544007  0.3333744036219177  0.4369213436618982
  0.2690174514317953  0.8333871112703845  0.4361881308204164
  0.4997444797806959  0.8332778810208737  0.5632127408392809
  0.3841198341824049  0.8332737122766781  0.5626369033699172
  0.6152543905944861  0.8332734126660516  0.5637092320225554
  0.4419453090070276  0.6665958133885933  0.5628803186617700
  0.6729699116137502  0.6666077421538128  0.5636870000127531
  0.3262207534649030  0.6664322742654345  0.5626338607282980
  0.5575098507140206  0.6666033184188207  0.5635177519857598
  0.2690936536570513  0.1666082341442206  0.4359451621544169
  0.4997439909306931  0.1665972934498537  0.5632039519806050
  0.3840991063926888  0.1666434325712095  0.5625450518875985
  0.6152530579319472  0.1666034806001122  0.5637085747043574
  0.4419454150268662  0.9999633300073931  0.5628798925932660
  0.6729699097787273  0.9999433277431519  0.5636870757146313
  0.3262206171179534  1.0001042582685786  0.5626325644874185
  0.5575099217984709  0.9999330308535499  0.5635175911006980
  0.2690942149232301  0.5001706942466040  0.4359439041653278
  0.4997438741657527  0.4999577683522781  0.5632050711533774
  0.3840991684419304  0.4999005952272809  0.5625468047929367
  0.6152530312429294  0.4999433657506758  0.5637085725473587
  0.4419527490136501  0.3332781446623151  0.5628535974529130
  0.6729696790650971  0.3332755774991223  0.5636864943404545
  0.3260920009767500  0.3332695643627646  0.5622622695120824
  0.5575094545884444  0.3332680616791128  0.5635147844299885
  0.4609634316562241  0.8333799027620568  0.4364911837695523
  0.6918511710525880  0.8333751895368209  0.4366185073449542
  0.3454048225529364  0.8333898622935545  0.4361567389931543
  0.5764246943837551  0.8333746915020336  0.4369714994548911
  0.4032066275065275  0.6667191606166898  0.4362473786419873
  0.6341478635296179  0.6667086693740616  0.4369714902261797
  0.2873583802805846  0.6670414737571920  0.4361289626953729
  0.5186985375158981  0.6667157288840091  0.4367468430394216
  0.4609632396452264  0.1667139814617106  0.4364847834128734
  0.6918509899728451  0.1667084413036404  0.4366188489685707
  0.3453925438557402  0.1667060921757781  0.4360971693499457
  0.5764245181511121  0.1667080354165659  0.4369708251248683
  0.4032068085198248  0.0000522176315448  0.4362473824210067
  0.6341478696518985  0.0000408230855999  0.4369714768619199
  0.2873573234121579  0.9997346473474089  0.4361298232619363
  0.5186985898538813  0.0000464603513258  0.4367465467495008
  0.4609631630796221  0.5000459097076007  0.4364846570263727
  0.6918509985448522  0.5000419366693003  0.4366188565864413
  0.3453926255133720  0.5000688616728239  0.4360978526653204
  0.5764244477537216  0.5000419257173271  0.4369708298289634
  0.4032034739327889  0.3333850794202439  0.4362343343668159
  0.6341477138779994  0.3333747633148717  0.4369712533383559
  0.2873190969533423  0.3333895958594121  0.4359840833359920
  0.5186981168564060  0.3333814809385586  0.4367438611572937
  0.4804751664976728  0.9999568778266360  0.5631029052247415
  0.7118587046579673  0.9999563836442109  0.5633980553486434
  0.3648738536436167  1.0000708703670478  0.5625337672951622
  0.5960293138760319  0.9999402512834121  0.5636728218980053
  0.4226789105778638  0.8332794631291238  0.5628102535120015
  0.6538347753930422  0.8332721496715139  0.5637486585144609
  0.3072136588077092  0.8332686799661136  0.5631828875091152
  0.5382591774756849  0.8332721322775332  0.5634408722266893
  0.4804756253211223  0.3332784266112996  0.5630944688064321
  0.7118603861836855  0.3332865231046774  0.5633981631439748
  0.3647620474380427  0.3332713758589122  0.5624411780018622
  0.5960292474801231  0.3332707590436471  0.5636720524873696
  0.4226694181049998  0.1666249001083751  0.5627586659881618
  0.6538332969595474  0.1666000989234801  0.5637480551518069
  0.3069000884037282  0.1664378433445201  0.5623538832330305
  0.5382588976279895  0.1665919986971969  0.5634354194164987
  0.4804750968218577  0.6666009439852109  0.5631033061767979
  0.7118587052833768  0.6666165802414189  0.5633979897410688
  0.3648739176672070  0.6664718058125910  0.5625356674283735
  0.5960292554459417  0.6666011521621534  0.5636728537034729
  0.4226695551263874  0.4999305699547112  0.5627595862394880
  0.6538332765185567  0.4999443300390883  0.5637480062939250
  0.3069000164061218  0.5000999420630342  0.5623539265614553
  0.5382588310215476  0.4999514572806881  0.5634357714652547
  0.2683925822385631  0.8332680692606877  0.5646295637350011
  0.2678779416440237  0.5011277152991154  0.5632288085543384
  0.2678778039471440  0.1654179350451005  0.5632310380430241
  0.7307338807467566  0.8333778000383815  0.4362990639903538
  0.7307338700145152  0.5000450383938893  0.4362998869309755
  0.7307338691227048  0.1667105674703768  0.4362998837798357
  0.2500057243863333  0.6671448417872800  0.5651001406793406
  0.2488991329027213  0.3332739692619551  0.5622631529886418
  0.2500058403102489  0.9994004610834047  0.5651017967251569
  0.7491908851914563  0.0000456022540758  0.4361523016373904
  0.7491907545856814  0.3333787904309508  0.4361540157711445
  0.7491908854481142  0.6667120079876823  0.4361523005605628
  0.2395096329981021  0.8333866330712411  0.4366168598775219
  0.2394424852801995  0.5012967642312531  0.4345601888339181
  0.2394414737323040  0.1654891380874600  0.4345466571002382
  0.7597798943486089  0.8332912418978285  0.5624169983529638
  0.7597811553284114  0.4999621356178425  0.5624163297467701
  0.7597811411603517  0.1666202429150894  0.5624162859985065
  0.2204245190815506  0.6688586209167324  0.5667090087239837
  0.2210112005870336  0.3332838371139084  0.5764339125675222
  0.2204244023214955  0.9976851308631673  0.5667184259194403
  0.7786716327812789  0.0000474736566396  0.4359222501631171
  0.7786715383592778  0.3333804834324622  0.4359237332155321
  0.7786716323432137  0.6667136771505693  0.4359222298691117
  0.2027166589243882  0.3329629491839394  0.5046150230042543

             NaN             NaN             NaN
             NaN             NaN             NaN
             NaN             NaN             NaN
             NaN             NaN             NaN
             NaN             NaN             NaN
             NaN             NaN             NaN
             NaN             NaN             NaN
             NaN             NaN             NaN
             NaN             NaN             NaN
             NaN             NaN             NaN
             NaN             NaN             NaN
             NaN             NaN             NaN
             NaN             NaN             NaN
             NaN             NaN             NaN
             NaN             NaN             NaN
             NaN             NaN             NaN
             NaN             NaN             NaN
             NaN             NaN             NaN
             NaN             NaN             NaN
             NaN             NaN             NaN
             NaN             NaN             NaN
             NaN             NaN             NaN
             NaN             NaN             NaN
             NaN             NaN             NaN
             NaN             NaN             NaN
             NaN             NaN             NaN
             NaN             NaN             NaN
             NaN             NaN             NaN
             NaN             NaN             NaN
             NaN             NaN             NaN
             NaN             NaN             NaN
             NaN             NaN             NaN
             NaN             NaN             NaN
             NaN             NaN             NaN
             NaN             NaN             NaN
             NaN             NaN             NaN
             NaN             NaN             NaN
             NaN             NaN             NaN
             NaN             NaN             NaN
             NaN             NaN             NaN
             NaN             NaN             NaN
             NaN             NaN             NaN
             NaN             NaN             NaN
             NaN             NaN             NaN
             NaN             NaN             NaN
             NaN             NaN             NaN
             NaN             NaN             NaN
             NaN             NaN             NaN
             NaN             NaN             NaN
             NaN             NaN             NaN
             NaN             NaN             NaN
             NaN             NaN             NaN
             NaN             NaN             NaN
             NaN             NaN             NaN
             NaN             NaN             NaN
             NaN             NaN             NaN
             NaN             NaN             NaN
             NaN             NaN             NaN
             NaN             NaN             NaN
             NaN             NaN             NaN
             NaN             NaN             NaN
             NaN             NaN             NaN
             NaN             NaN             NaN
             NaN             NaN             NaN
             NaN             NaN             NaN
             NaN             NaN             NaN
             NaN             NaN             NaN
             NaN             NaN             NaN
             NaN             NaN             NaN
             NaN             NaN             NaN
             NaN             NaN             NaN
             NaN             NaN             NaN
             NaN             NaN             NaN
             NaN             NaN             NaN
             NaN             NaN             NaN
             NaN             NaN             NaN
             NaN             NaN             NaN
             NaN             NaN             NaN
             NaN             NaN             NaN
             NaN             NaN             NaN
             NaN             NaN             NaN
             NaN             NaN             NaN
             NaN             NaN             NaN
             NaN             NaN             NaN
             NaN             NaN             NaN
             NaN             NaN             NaN
             NaN             NaN             NaN
             NaN             NaN             NaN
             NaN             NaN             NaN
             NaN             NaN             NaN
             NaN             NaN             NaN
             NaN             NaN             NaN
             NaN             NaN             NaN
             NaN             NaN             NaN
             NaN             NaN             NaN
             NaN             NaN             NaN
             NaN             NaN             NaN
             NaN             NaN             NaN
             NaN             NaN             NaN
             NaN             NaN             NaN
             NaN             NaN             NaN
             NaN             NaN             NaN
             NaN             NaN             NaN
             NaN             NaN             NaN
             NaN             NaN             NaN
             NaN             NaN             NaN
             NaN             NaN             NaN
             NaN             NaN             NaN
             NaN             NaN             NaN
             NaN             NaN             NaN
             NaN             NaN             NaN
             NaN             NaN             NaN
             NaN             NaN             NaN
             NaN             NaN             NaN
             NaN             NaN             NaN
             NaN             NaN             NaN
             NaN             NaN             NaN
             NaN             NaN             NaN
             NaN             NaN             NaN
             NaN             NaN             NaN
             NaN             NaN             NaN
