C    H    Li                            
   1.0000000000000000     
    37.2234382628999967    0.0000000000000000    0.0000000000000000
     0.0000000000000000    8.5469398498999993    0.0000000000000000
     0.0000000000000000    0.0000000000000000   27.8030738831000015
   C    H    Li
   104    16     1
Direct
  0.4667595402856021  0.0038294592231344  0.4360594485260615
  0.4667606758383799  0.5038270879520207  0.4360637240289268
  0.4336763874289085  0.2537896410507526  0.4360835476696843
  0.4336739253567657  0.7537866615559559  0.4360569894723432
  0.3341689307903147  0.0034795146978893  0.4361211250669434
  0.3341732964453271  0.5035861895870212  0.4361483568839724
  0.3017665407880434  0.2573699970493349  0.4362238214419869
  0.3017379523010126  0.7573539824716798  0.4364303942283416
  0.4005438686717503  0.0043189854510318  0.4360698157911982
  0.4005444701674966  0.5043139460861260  0.4360982554856899
  0.3672590455816689  0.2538944989586689  0.4360964749502755
  0.3672607030624207  0.7539018830180402  0.4360527561947748
  0.4667641761249715  0.9961567237265594  0.5639348327524069
  0.4667654064405490  0.4961588076663050  0.5639354727563245
  0.4336837759494638  0.2461966133278970  0.5639185942330218
  0.4336790021698007  0.7461983634179663  0.5639349400650088
  0.3341726809134194  0.9964325748293273  0.5638274534415828
  0.3341785925730261  0.4964731615503957  0.5639256943188166
  0.3017937890815281  0.2425799369582914  0.5639339218446949
  0.3017465638416794  0.7426162369560360  0.5635364670013012
  0.4005484734118809  0.9956701200621860  0.5639076815980306
  0.4005507463012261  0.4956654782653752  0.5639285879944773
  0.3672719646700101  0.2460871497131652  0.5639359321338137
  0.3672654934282883  0.7460811210309954  0.5639248071468483
  0.4667587076001438  0.1706347933509350  0.4360587463460712
  0.4667573728773277  0.6706335079245697  0.4360518133322368
  0.4336736090304917  0.4207547943817729  0.4360738494821623
  0.4336711812696592  0.9207590058683889  0.4360503501458893
  0.3341820915892962  0.1712405078346491  0.4361092784943656
  0.3341753156219984  0.6713444129949510  0.4361378094239740
  0.3017465631688261  0.4174901276686658  0.4362139266780006
  0.3017259907420214  0.9174909915861278  0.4363696577039605
  0.4005427444944391  0.1703629939341908  0.4360794901001544
  0.4005421394717443  0.6703565054802609  0.4360533643838155
  0.3672520106674269  0.4208596023367724  0.4361036947541205
  0.3672549196590898  0.9208469479518037  0.4360471618485935
  0.3017354960705884  0.0824583593499603  0.5637676427647929
  0.3017417450410035  0.5824991266610158  0.5636736055771659
  0.4667650355515373  0.3293529377112293  0.5639386835077164
  0.4667617685552141  0.8293539840665219  0.5639445822125760
  0.3672564547742947  0.0791218064222583  0.5639164456808033
  0.3672616059320354  0.5791396363824773  0.5639495207751968
  0.3341994925726590  0.3287327665871520  0.5639854063734325
  0.3341793426511435  0.8286508695621170  0.5638195178615720
  0.4336772146982811  0.0792273287102328  0.5639295627593084
  0.4336782465165087  0.5792299094102467  0.5639418239020281
  0.4005530251974161  0.3296249376937190  0.5639282306132001
  0.4005467461706956  0.8296266420526573  0.5639359969653364
  0.5331169746062158  0.9961453221457972  0.5639720618162939
  0.5331169705409059  0.4961461133594696  0.5639717970789959
  0.5661997904057990  0.7461809386066659  0.5639944657992053
  0.5661996573074199  0.2461812879102536  0.5639947564082149
  0.6656896271397793  0.9964401097116545  0.5639258872732039
  0.6656900206140937  0.4964411022319205  0.5639248381342838
  0.6981122511512088  0.7425943168487464  0.5636793533175491
  0.6981124991182865  0.2425929161072742  0.5636930605607037
  0.4999411775621054  0.7459177204782651  0.5639380254529431
  0.4999427393677445  0.2459157006453488  0.5639353820404555
  0.5993264821185202  0.9956408810404563  0.5640094963410034
  0.5993266818662439  0.4956402083564776  0.5640097192021507
  0.6326085410973766  0.7460575873604275  0.5640155357680777
  0.6326093764242383  0.2460577334127712  0.5640186827405875
  0.5331126040844546  0.0038433374096658  0.4360270752033133
  0.5331125104761132  0.5038439361837949  0.4360268581055802
  0.5661961491777551  0.7538081880482149  0.4360051782464339
  0.5661957675788932  0.2538082137442628  0.4360049915697784
  0.6656857822903712  0.0035486363609884  0.4360705847845168
  0.6656871448588971  0.5035486850583368  0.4360706119435330
  0.6981087984490527  0.7573956166629019  0.4363066071448191
  0.6981093596656121  0.2573956170798609  0.4363122422483518
  0.4999368605714752  0.7540706083414133  0.4360596611970737
  0.4999377356194688  0.2540710882208916  0.4360628648385677
  0.5993230395664734  0.0043496924485791  0.4359900548647652
  0.5993232509111344  0.5043483098495601  0.4359897307872049
  0.6326052186070950  0.7539321460496344  0.4359807871927220
  0.6326061199899995  0.2539322500220009  0.4359816299685266
  0.5331197636842072  0.8293455797072743  0.5639775577567391
  0.5331199962417623  0.3293455807394781  0.5639770279936690
  0.5662008908851703  0.5792069178451132  0.5640054915322895
  0.5662007278608046  0.0792073045912015  0.5640056377646180
  0.6656833861208017  0.8286452001787924  0.5639314856903683
  0.6656842131408159  0.3286461268998054  0.5639368919864551
  0.6981265929217275  0.5824613723301252  0.5637162791216769
  0.6981263196487687  0.0824609558634412  0.5637261385153081
  0.4999416796906033  0.5796202790343776  0.5639529945640850
  0.4999413481589887  0.0796175720307442  0.5639517096665387
  0.5993288607193675  0.8296044856289644  0.5640259348266816
  0.5993293325477098  0.3296041886150012  0.5640270804053117
  0.6326137290351205  0.5791103551826756  0.5640167188585412
  0.6326135920191610  0.0791110269038123  0.5640183639603090
  0.6981231691850950  0.9175283967721195  0.4362727681017218
  0.6981236762219051  0.4175285043998819  0.4362772626089757
  0.4999365704191863  0.9203701306747336  0.4360440020979922
  0.4999374777045801  0.4203690714289173  0.4360464321488072
  0.5331155237872847  0.6706415475306182  0.4360220054138126
  0.5331155387634401  0.1706405635409000  0.4360222816927048
  0.6326101212329348  0.9208789743805662  0.4359804543136079
  0.6326109578776413  0.4208789262575662  0.4359807412148474
  0.6656800481631718  0.6713440155057158  0.4360608417029394
  0.6656806920886542  0.1713433558626032  0.4360628281038823
  0.5661972496442366  0.9207830975355037  0.4359942311475749
  0.5661968609284551  0.4207829967812072  0.4359939211815227
  0.5993254945626056  0.6703852158656098  0.4359729565327699
  0.5993257479478442  0.1703864846055071  0.4359731080802728
  0.7238468988112781  0.9780426646505508  0.4365637776786703
  0.7238474817609036  0.4780421725469642  0.4365719363538034
  0.7238237069612129  0.8031875593099493  0.5633189183002464
  0.7238244378302812  0.3031841850276263  0.5633406769032532
  0.7238204797732806  0.6968031932468456  0.4366613081322613
  0.7238211626583435  0.1968042503230419  0.4366718929613111
  0.7238498827978123  0.0219452949428468  0.5634375313489289
  0.7238501339818014  0.5219466312631640  0.5634217449956445
  0.2759819240834422  0.0220663294108537  0.5635074592239584
  0.2759708910693769  0.5220715855659750  0.5633693987757051
  0.2760140231589878  0.1966848481348283  0.4363696960241485
  0.2760170696861232  0.6967694837220525  0.4368717140681318
  0.2760348433706836  0.3032611062534336  0.5640041357042730
  0.2760261233261642  0.8031753955451302  0.5630859903624071
  0.2759910750454208  0.9779928518711523  0.4367238778846609
  0.2759808803935912  0.4780610136716948  0.4363318571207910
  0.2060120925070250  0.3317087008626972  0.4995670049384621

             NaN             NaN             NaN
             NaN             NaN             NaN
             NaN             NaN             NaN
             NaN             NaN             NaN
             NaN             NaN             NaN
             NaN             NaN             NaN
             NaN             NaN             NaN
             NaN             NaN             NaN
             NaN             NaN             NaN
             NaN             NaN             NaN
             NaN             NaN             NaN
             NaN             NaN             NaN
             NaN             NaN             NaN
             NaN             NaN             NaN
             NaN             NaN             NaN
             NaN             NaN             NaN
             NaN             NaN             NaN
             NaN             NaN             NaN
             NaN             NaN             NaN
             NaN             NaN             NaN
             NaN             NaN             NaN
             NaN             NaN             NaN
             NaN             NaN             NaN
             NaN             NaN             NaN
             NaN             NaN             NaN
             NaN             NaN             NaN
             NaN             NaN             NaN
             NaN             NaN             NaN
             NaN             NaN             NaN
             NaN             NaN             NaN
             NaN             NaN             NaN
             NaN             NaN             NaN
             NaN             NaN             NaN
             NaN             NaN             NaN
             NaN             NaN             NaN
             NaN             NaN             NaN
             NaN             NaN             NaN
             NaN             NaN             NaN
             NaN             NaN             NaN
             NaN             NaN             NaN
             NaN             NaN             NaN
             NaN             NaN             NaN
             NaN             NaN             NaN
             NaN             NaN             NaN
             NaN             NaN             NaN
             NaN             NaN             NaN
             NaN             NaN             NaN
             NaN             NaN             NaN
             NaN             NaN             NaN
             NaN             NaN             NaN
             NaN             NaN             NaN
             NaN             NaN             NaN
             NaN             NaN             NaN
             NaN             NaN             NaN
             NaN             NaN             NaN
             NaN             NaN             NaN
             NaN             NaN             NaN
             NaN             NaN             NaN
             NaN             NaN             NaN
             NaN             NaN             NaN
             NaN             NaN             NaN
             NaN             NaN             NaN
             NaN             NaN             NaN
             NaN             NaN             NaN
             NaN             NaN             NaN
             NaN             NaN             NaN
             NaN             NaN             NaN
             NaN             NaN             NaN
             NaN             NaN             NaN
             NaN             NaN             NaN
             NaN             NaN             NaN
             NaN             NaN             NaN
             NaN             NaN             NaN
             NaN             NaN             NaN
             NaN             NaN             NaN
             NaN             NaN             NaN
             NaN             NaN             NaN
             NaN             NaN             NaN
             NaN             NaN             NaN
             NaN             NaN             NaN
             NaN             NaN             NaN
             NaN             NaN             NaN
             NaN             NaN             NaN
             NaN             NaN             NaN
             NaN             NaN             NaN
             NaN             NaN             NaN
             NaN             NaN             NaN
             NaN             NaN             NaN
             NaN             NaN             NaN
             NaN             NaN             NaN
             NaN             NaN             NaN
             NaN             NaN             NaN
             NaN             NaN             NaN
             NaN             NaN             NaN
             NaN             NaN             NaN
             NaN             NaN             NaN
             NaN             NaN             NaN
             NaN             NaN             NaN
             NaN             NaN             NaN
             NaN             NaN             NaN
             NaN             NaN             NaN
             NaN             NaN             NaN
             NaN             NaN             NaN
             NaN             NaN             NaN
             NaN             NaN             NaN
             NaN             NaN             NaN
             NaN             NaN             NaN
             NaN             NaN             NaN
             NaN             NaN             NaN
             NaN             NaN             NaN
             NaN             NaN             NaN
             NaN             NaN             NaN
             NaN             NaN             NaN
             NaN             NaN             NaN
             NaN             NaN             NaN
             NaN             NaN             NaN
             NaN             NaN             NaN
             NaN             NaN             NaN
             NaN             NaN             NaN
             NaN             NaN             NaN
             NaN             NaN             NaN
