C    Li                                 
   1.0000000000000000     
    14.8037481308000007    0.0000000000000000    0.0000000000000000
    -7.4018740654000004   12.8204219525000003    0.0000000000000000
     0.0000000000000000    0.0000000000000000   27.8030738831000015
   C    Li
   143     1
Direct
  0.9998172713943266  0.9998516216224821  0.4358144189530321
  0.9998193833182817  0.4998563017471655  0.4358939815136929
  0.4998375764207224  0.9998708333767360  0.4352437336664925
  0.4998415713825658  0.4998983618422159  0.4358686111722125
  0.9998245898040919  0.1665303443461471  0.4361112170190241
  0.9998083701864028  0.6665198347262444  0.4356664905707534
  0.4998332441162203  0.1665331660617030  0.4368583338377242
  0.4998550400544735  0.6665197031615481  0.4338546342849373
  0.9998248514574077  0.3331971374700705  0.4360716492767839
  0.9998045816314411  0.8331789641664402  0.4355523264901158
  0.4998432950949707  0.3332303775334021  0.4374241776038941
  0.4998407581698912  0.8332009202126195  0.4339537956802660
  0.1664872834353100  0.9998580411115384  0.4362255961086823
  0.1664979777766861  0.4998667164912941  0.4353158464929855
  0.6665033652325495  0.9998772002573971  0.4347481947810182
  0.6664854616783996  0.4998843704369483  0.4366388870183377
  0.1664825644173524  0.1665254486749942  0.4367967290103855
  0.1664883304651664  0.6665226716418328  0.4350445878840714
  0.6664960668029388  0.1665328078074030  0.4360929589667921
  0.6664553436167708  0.6665124259104320  0.4349617758783928
  0.1664938267312285  0.3331987334786986  0.4362678756119150
  0.1664870539136716  0.8331867410127638  0.4354050136608534
  0.6665009649470618  0.3332033131556884  0.4370681127906944
  0.6665098432390215  0.8332032876185054  0.4341041005968680
  0.3331580240297614  0.9998583599038864  0.4359939430263885
  0.3331617894749139  0.4998642046068764  0.4350320001362544
  0.8331626211260055  0.9998657699430317  0.4351009002136897
  0.8331451962477927  0.4998638710741640  0.4364650989850977
  0.3331607412412962  0.1665275241348219  0.4371950983844774
  0.3331743029876643  0.6665175452501513  0.4341655321973589
  0.8331604076236087  0.1665312348445979  0.4357361465308204
  0.8331230984227104  0.6665113600291008  0.4357647687463146
  0.3331666637957311  0.3332320742237551  0.4369336878346639
  0.3331678410324728  0.8332001521146920  0.4347034642922064
  0.8331623198435205  0.3332014284569065  0.4363760288946781
  0.8331458826211928  0.8331881319265139  0.4350255453392958
  0.0005933025614173  0.0002190979574948  0.5632874641015544
  0.0006080331928761  0.5007507568770267  0.5637453938394849
  0.5013286848859666  0.0010857132633696  0.5615868380412545
  0.0027721378356005  0.1684277453793133  0.5647335314974231
  0.9994725504707274  0.6667338458278794  0.5633764997353635
  0.5010952581984549  0.1644782098816852  0.5666800593883390
  0.5017674916235512  0.6748611443840614  0.5523050713011668
  0.0029015119804799  0.3348423869494791  0.5638923244704083
  0.9994783564520624  0.8329336317316230  0.5625974280694198
  0.5001182537064768  0.3254329859687791  0.5819921690136920
  0.5015286298227477  0.8375602227273318  0.5588664874407572
  0.1665016612984832  0.9990953017029655  0.5640996261271755
  0.1680284855581371  0.5015077375938499  0.5629547490241591
  0.6686605416207106  0.0020686827874315  0.5608289121727779
  0.6636912589120061  0.4993347712736862  0.5695773302363232
  0.1673659494301892  0.1659015347843951  0.5673973160452990
  0.1667627452331197  0.6674709744638211  0.5620037839646080
  0.6684704928826938  0.1676481150602030  0.5639380930434787
  0.6650842254479902  0.6664347730330950  0.5615035355401155
  0.1717342731407619  0.3356696495370351  0.5668229002403858
  0.1663594334922968  0.8331592125882044  0.5622848091950987
  0.6673121180034380  0.3332614895218554  0.5690298011313212
  0.6683427211200688  0.8358318379868285  0.5587684923008733
  0.3335497097991549  0.9993000517513951  0.5633221531582381
  0.3368214416805888  0.5040488848371497  0.5594770203105112
  0.8353153452373107  0.0017725377190331  0.5620430322662254
  0.8329272201634468  0.5001546188850150  0.5659077647579356
  0.3333343301704502  0.1636703912815366  0.5708968530151236
  0.3340196255130659  0.6692760306291552  0.5584412350311987
  0.8357189529757735  0.1683117208495158  0.5631256558860780
  0.8320081517477841  0.6662463690612345  0.5639262227047321
  0.3347898254486115  0.3294543206263627  0.5793983468110073
  0.3336884750603179  0.8344059248322050  0.5606404521616143
  0.8349461275664017  0.3343281310618630  0.5643811536502678
  0.8335190847671428  0.8339171855367467  0.5614922120221463
  0.0553763406007194  0.1109733897345193  0.4362560458917102
  0.0553720279293481  0.6109684101876086  0.4355399459464677
  0.5553910836628085  0.1109853853710456  0.4360827697176362
  0.5553865320339713  0.6109783942448429  0.4346968530791170
  0.0553836765645961  0.2776455402840421  0.4362016035770737
  0.0553629758547858  0.7776249190962529  0.4354993258651074
  0.5553853485283241  0.2776508534431675  0.4373019000796322
  0.5553865236612352  0.7776233427774761  0.4337358509228170
  0.0553784596460301  0.4443083166202121  0.4358060738198196
  0.0553678379555753  0.9442968750657591  0.4358284555848678
  0.5553753702267222  0.4443511756665416  0.4368227655375525
  0.5553897839775960  0.9443191249455705  0.4345183474951466
  0.2220392051634892  0.1109662900790567  0.4368195508263934
  0.2220457923571637  0.6109666487973541  0.4347657854703219
  0.7220435091528391  0.1109746372008103  0.4354771925174994
  0.7220105355763792  0.6109633221730775  0.4358362718370720
  0.2220385094775885  0.2776473738718890  0.4367902738568482
  0.2220443471465465  0.7776390729778053  0.4349836089892882
  0.7220462247944525  0.2776478632232944  0.4365964121996130
  0.7220363841205489  0.7776294980611842  0.4345429791425647
  0.2220721998979819  0.4443232419242771  0.4355216209535671
  0.2220445754451067  0.9443044943433039  0.4358547825068416
  0.7220374182408810  0.4443296247966462  0.4368835028364669
  0.7220534169600473  0.9443093999368618  0.4345156972879987
  0.3887136652149004  0.1109709667946577  0.4367677345512319
  0.3887301557793394  0.6109584198195429  0.4341071432062341
  0.8887087011829755  0.1109763500628662  0.4356127928413384
  0.8886900951747300  0.6109681659433185  0.4360196682106431
  0.3887230053883564  0.2776553088000329  0.4374069879323808
  0.3887274820346285  0.7776511495264615  0.4341193782731376
  0.8887172197755323  0.2776464529234126  0.4360953841843507
  0.8886966901664048  0.7776281305780542  0.4353897365975337
  0.3887205507951813  0.4443287115437474  0.4359430766063337
  0.3887186078771576  0.9443139753570635  0.4352459591096481
  0.8887015030805077  0.4443058764665990  0.4363169657571653
  0.8887072028339356  0.9443028426780744  0.4352288434695529
  0.1114844127834936  0.0550683564663779  0.5646535448933242
  0.1117613118882697  0.5564866772446438  0.5629338920430581
  0.6126088094265902  0.0568490398755815  0.5619562253501182
  0.6124442008010470  0.5576785878286625  0.5662167505864819
  0.1139662607134559  0.2236103453960644  0.5669898456287549
  0.1106962859709395  0.7223443635378464  0.5624984339099195
  0.6123033979466554  0.2218042162734710  0.5668482715509173
  0.6129789659585062  0.7262074728699502  0.5567929963925101
  0.1143387207246813  0.3904254736352595  0.5640971416755152
  0.1106275250991982  0.8883038943334021  0.5627604278198725
  0.6114237936406416  0.3870511778299678  0.5744778111232279
  0.6127339089372830  0.8917367663522570  0.5590052726309555
  0.2774815638290010  0.0537948236882471  0.5656432966408523
  0.2787930505076133  0.5581007390304523  0.5604926799994893
  0.7799341385975717  0.0574424467857829  0.5619838923461066
  0.7763293706681629  0.5551500271033165  0.5664167185087559
  0.2833715071530963  0.3909798671024882  0.5692476242079787
  0.2775555941295031  0.8887918507036793  0.5618594210266115
  0.7787173070103905  0.3892369294961354  0.5660664981461903
  0.7795318726942335  0.8908999597454506  0.5609111051131049
  0.4448786877108625  0.0546787287502237  0.5632493299776957
  0.4427858079372645  0.5699770965154115  0.5473044891939565
  0.9464561630205045  0.0570425874219693  0.5634352156667242
  0.9442226248803932  0.5557871575444241  0.5642216495646589
  0.4444925616273639  0.2167197285060629  0.5727410728574116
  0.4451079022092685  0.7280474172363419  0.5564739510916156
  0.9469911460968659  0.2237744075043381  0.5639676718756935
  0.9435983356711283  0.7218955022374633  0.5631709933575084
  0.4391655504209911  0.3667507529912557  0.5948828058751205
  0.4450681011995247  0.8909960996224412  0.5604120937717938
  0.9463335383628148  0.3899054191322948  0.5638748199738532
  0.9445483387842506  0.8890278150112262  0.5624063790021624
  0.2775315894308689  0.2190326424696839  0.5722625251602645
  0.2777611902440044  0.7236430257428877  0.5603597398287935
  0.7797696562438405  0.2233790729013675  0.5637568885633740
  0.7772493594349877  0.7225368188411728  0.5622601026348361
  0.4569917132386468  0.4749936382379032  0.5698603460869799

             NaN             NaN             NaN
             NaN             NaN             NaN
             NaN             NaN             NaN
             NaN             NaN             NaN
             NaN             NaN             NaN
             NaN             NaN             NaN
             NaN             NaN             NaN
             NaN             NaN             NaN
             NaN             NaN             NaN
             NaN             NaN             NaN
             NaN             NaN             NaN
             NaN             NaN             NaN
             NaN             NaN             NaN
             NaN             NaN             NaN
             NaN             NaN             NaN
             NaN             NaN             NaN
             NaN             NaN             NaN
             NaN             NaN             NaN
             NaN             NaN             NaN
             NaN             NaN             NaN
             NaN             NaN             NaN
             NaN             NaN             NaN
             NaN             NaN             NaN
             NaN             NaN             NaN
             NaN             NaN             NaN
             NaN             NaN             NaN
             NaN             NaN             NaN
             NaN             NaN             NaN
             NaN             NaN             NaN
             NaN             NaN             NaN
             NaN             NaN             NaN
             NaN             NaN             NaN
             NaN             NaN             NaN
             NaN             NaN             NaN
             NaN             NaN             NaN
             NaN             NaN             NaN
             NaN             NaN             NaN
             NaN             NaN             NaN
             NaN             NaN             NaN
             NaN             NaN             NaN
             NaN             NaN             NaN
             NaN             NaN             NaN
             NaN             NaN             NaN
             NaN             NaN             NaN
             NaN             NaN             NaN
             NaN             NaN             NaN
             NaN             NaN             NaN
             NaN             NaN             NaN
             NaN             NaN             NaN
             NaN             NaN             NaN
             NaN             NaN             NaN
             NaN             NaN             NaN
             NaN             NaN             NaN
             NaN             NaN             NaN
             NaN             NaN             NaN
             NaN             NaN             NaN
             NaN             NaN             NaN
             NaN             NaN             NaN
             NaN             NaN             NaN
             NaN             NaN             NaN
             NaN             NaN             NaN
             NaN             NaN             NaN
             NaN             NaN             NaN
             NaN             NaN             NaN
             NaN             NaN             NaN
             NaN             NaN             NaN
             NaN             NaN             NaN
             NaN             NaN             NaN
             NaN             NaN             NaN
             NaN             NaN             NaN
             NaN             NaN             NaN
             NaN             NaN             NaN
             NaN             NaN             NaN
             NaN             NaN             NaN
             NaN             NaN             NaN
             NaN             NaN             NaN
             NaN             NaN             NaN
             NaN             NaN             NaN
             NaN             NaN             NaN
             NaN             NaN             NaN
             NaN             NaN             NaN
             NaN             NaN             NaN
             NaN             NaN             NaN
             NaN             NaN             NaN
             NaN             NaN             NaN
             NaN             NaN             NaN
             NaN             NaN             NaN
             NaN             NaN             NaN
             NaN             NaN             NaN
             NaN             NaN             NaN
             NaN             NaN             NaN
             NaN             NaN             NaN
             NaN             NaN             NaN
             NaN             NaN             NaN
             NaN             NaN             NaN
             NaN             NaN             NaN
             NaN             NaN             NaN
             NaN             NaN             NaN
             NaN             NaN             NaN
             NaN             NaN             NaN
             NaN             NaN             NaN
             NaN             NaN             NaN
             NaN             NaN             NaN
             NaN             NaN             NaN
             NaN             NaN             NaN
             NaN             NaN             NaN
             NaN             NaN             NaN
             NaN             NaN             NaN
             NaN             NaN             NaN
             NaN             NaN             NaN
             NaN             NaN             NaN
             NaN             NaN             NaN
             NaN             NaN             NaN
             NaN             NaN             NaN
             NaN             NaN             NaN
             NaN             NaN             NaN
             NaN             NaN             NaN
             NaN             NaN             NaN
             NaN             NaN             NaN
             NaN             NaN             NaN
             NaN             NaN             NaN
             NaN             NaN             NaN
             NaN             NaN             NaN
             NaN             NaN             NaN
             NaN             NaN             NaN
             NaN             NaN             NaN
             NaN             NaN             NaN
             NaN             NaN             NaN
             NaN             NaN             NaN
             NaN             NaN             NaN
             NaN             NaN             NaN
             NaN             NaN             NaN
             NaN             NaN             NaN
             NaN             NaN             NaN
             NaN             NaN             NaN
             NaN             NaN             NaN
             NaN             NaN             NaN
             NaN             NaN             NaN
             NaN             NaN             NaN
             NaN             NaN             NaN
             NaN             NaN             NaN
             NaN             NaN             NaN
             NaN             NaN             NaN
             NaN             NaN             NaN
