C    Li                                 
   1.0000000000000000     
    14.8037481308000007    0.0000000000000000    0.0000000000000000
    -7.4018740654000004   12.8204219525000003    0.0000000000000000
     0.0000000000000000    0.0000000000000000   27.8030738831000015
   C    Li
   143     1
Direct
  0.9998416265488753  0.9998620341578214  0.4357537567993345
  0.9998386387471412  0.4998642088984201  0.4359293416615710
  0.4998556939435420  0.9998768976771475  0.4352382870403450
  0.4998654823523876  0.4999097175740671  0.4359406364885856
  0.9998438593036326  0.1665372732522610  0.4361015684984652
  0.9998301059148644  0.6665295672653662  0.4356619418374600
  0.4998523223358230  0.1665401445429636  0.4368130811079659
  0.4998737643511051  0.6665275565537144  0.4339584918517749
  0.9998419842322157  0.3332025518642114  0.4361043409303521
  0.9998278650726743  0.8331906005360413  0.4354976759159224
  0.4998632180752590  0.3332373828527322  0.4374119723147604
  0.4998577670550856  0.8332058624099793  0.4340193505223208
  0.1665099107982909  0.9998677396359604  0.4361440898713020
  0.1665148281304465  0.4998716735254267  0.4354169289707158
  0.6665214360940699  0.9998831687071229  0.4347633376028157
  0.6665077053331461  0.4998933196040799  0.4366489343201807
  0.1665046284053417  0.1665342909668992  0.4367517890967403
  0.1665077661749324  0.6665315099347442  0.4351035375504825
  0.6665142174758004  0.1665396716117213  0.4360701421539234
  0.6664778406992320  0.6665222195095112  0.4350097460248669
  0.1665124943598917  0.3332067316398406  0.4363199712972065
  0.1665084442112221  0.8331972558814310  0.4353716870673736
  0.6665194545839499  0.3332108800971962  0.4370400481113871
  0.6665282603481367  0.8332099653616041  0.4341503650774542
  0.3331770722145622  0.9998650529706713  0.4359403752954145
  0.3331850044576244  0.4998755520237683  0.4351505696008707
  0.8331822648797111  0.9998725653590017  0.4350940329007063
  0.8331664471145781  0.4998720511079328  0.4364574966424432
  0.3331813893404901  0.1665347224543519  0.4371363767885220
  0.3331908421384971  0.6665229940667146  0.4342768147599316
  0.8331795318673267  0.1665380009968786  0.4357319575125811
  0.8331474402860586  0.6665222042852327  0.4357546005597016
  0.3331878438276883  0.3332405460508909  0.4369595842293535
  0.3331858363399249  0.8332061160615309  0.4347314304887446
  0.8331798029169849  0.3332078837142362  0.4363686642940666
  0.8331678696943557  0.8331976591958514  0.4350128873317899
  0.0005760502236392  0.0002225274523065  0.5631569905076768
  0.0005883161815661  0.5007476971014726  0.5637737882292108
  0.5013113030654271  0.0010964006720438  0.5614699821354818
  0.0027507424732289  0.1684269615551298  0.5646833344578236
  0.9994525039630714  0.6667270062968769  0.5633287402395410
  0.5010677756164612  0.1644819630946630  0.5664755139619452
  0.5017705953044658  0.6748619139404148  0.5525525531199423
  0.0028827773192030  0.3348464901438399  0.5639213094209825
  0.9994565088793654  0.8329280782943945  0.5624742374733750
  0.5000499183001308  0.3253644987041059  0.5819571268282524
  0.5015191353266978  0.8375674958410878  0.5589543310047923
  0.1664709517741635  0.9990838134553522  0.5639098041209335
  0.1680298808001648  0.5015102562642609  0.5631294148190436
  0.6686467782478016  0.0020843627208328  0.5607849450128064
  0.6636437948507246  0.4993333574090936  0.5695694687124144
  0.1673329702070139  0.1658795011191078  0.5673013658181537
  0.1667502237698415  0.6674640437273103  0.5620702797010821
  0.6684510264034904  0.1676630989281567  0.5638148416892217
  0.6651013194554948  0.6664765901080161  0.5615585312762089
  0.1717027856593673  0.3356453956116822  0.5669285313815096
  0.1663319227625255  0.8331455110048567  0.5621717920818335
  0.6672668622199731  0.3332643732839428  0.5689207992466148
  0.6683410587244650  0.8358577190151548  0.5588127189580970
  0.3335212729691057  0.9992937172028310  0.5631203489046648
  0.3368368289527226  0.5040254496886017  0.5597898382957284
  0.8353077706060208  0.0017905674467731  0.5619746891772565
  0.8328962095054194  0.5001570127343095  0.5658641612335420
  0.3332975223416578  0.1636404745431510  0.5707320731513341
  0.3340241831512866  0.6692682099590886  0.5586722736153107
  0.8357026362157070  0.1683226705979506  0.5630677046601066
  0.8319909442979477  0.6662471338011066  0.5638767180495815
  0.3347144678102049  0.3293364878827145  0.5795192685608668
  0.3336710660178946  0.8343981333637062  0.5606374821548453
  0.8349176829216355  0.3343343484607947  0.5643275119731298
  0.8335160302143988  0.8339366961636780  0.5614260343321902
  0.0553986117019673  0.1109830526708934  0.4362137443905817
  0.0553913818312191  0.6109769747578935  0.4355718707854166
  0.5554094251142331  0.1109918493520124  0.4360539261173322
  0.5554081522865505  0.6109888219832337  0.4347801301823045
  0.0554018935209317  0.2776522151911318  0.4362274042805515
  0.0553844400819365  0.7776348922202225  0.4354658552565349
  0.5554040999487071  0.2776576489723863  0.4372675214485743
  0.5554047071185796  0.7776300613089514  0.4338150433974604
  0.0553964398593442  0.4443129684867716  0.4358676348333571
  0.0553925604759942  0.9443081026085184  0.4357514491266802
  0.5553977564862405  0.4443592053685573  0.4368465730299262
  0.5554076554396212  0.9443244929382985  0.4345450855384627
  0.2220609116048688  0.1109743846145053  0.4367456354541814
  0.2220623057675442  0.6109722028798854  0.4348735239719566
  0.7220620454355386  0.1109813807697017  0.4354712187012970
  0.7220342742442795  0.6109737373391734  0.4358545367685901
  0.2220593569232613  0.2776560997868575  0.4368025421047625
  0.2220628980925139  0.7776469589762799  0.4350033051639903
  0.7220636876640090  0.2776554077272916  0.4365669330331894
  0.7220572593066942  0.7776382115753763  0.4345736653725980
  0.2220930213338537  0.4443327126496648  0.4356248980925146
  0.2220655836688857  0.9443138450213888  0.4357883782142621
  0.7220581786114074  0.4443375155882684  0.4368707575863112
  0.7220721504756393  0.9443159543352557  0.4345358569820320
  0.3887336687365915  0.1109774676023478  0.4367064021332880
  0.3887494237106364  0.6109670766421864  0.4342298234004057
  0.8887277158223806  0.1109821659467788  0.4356041408691165
  0.8887118456850140  0.6109770922135012  0.4360101121861045
  0.3887426012351174  0.2776619152673320  0.4373861458261136
  0.3887442847122287  0.7776556412801879  0.4341930983730752
  0.8887345176502293  0.2776524242057083  0.4360999499811982
  0.8887210921304300  0.7776400151827907  0.4353602844976326
  0.3887465743120017  0.4443412737714492  0.4360267987932552
  0.3887372243948876  0.9443199852117417  0.4352336009556659
  0.8887207184494299  0.4443129218757864  0.4363207258051531
  0.8887296097802468  0.9443121125076899  0.4352005648282442
  0.1114588051059705  0.0550588016584374  0.5644941285969706
  0.1117515497718040  0.5564818037446300  0.5630304132564978
  0.6125924428716532  0.0568646391025846  0.5618525105658276
  0.6124380285377420  0.5577386746400175  0.5662765997801605
  0.1139366814644894  0.2235911633076155  0.5669732938363459
  0.1106769926980360  0.7223339575251880  0.5624651054333906
  0.6122746033676352  0.2218129796034326  0.5666900157290178
  0.6129855507013557  0.7262386909368462  0.5569142778273197
  0.1143232348413546  0.3904239585947313  0.5642109126883236
  0.1105999109759943  0.8882932821680795  0.5626025367557584
  0.6113619406740692  0.3870336835838935  0.5744231257910805
  0.6127218330828053  0.8917503256029499  0.5590418523161431
  0.2774510382366954  0.0537814924850785  0.5654321340907417
  0.2788094690759523  0.5580968281146795  0.5607581612222826
  0.7799207840639013  0.0574557725274816  0.5619260163391688
  0.7762931550564675  0.5551498153890088  0.5663819793161120
  0.2833288273136284  0.3909223504394878  0.5694595020646643
  0.2775289295313734  0.8887814010944185  0.5617369066498412
  0.7786805971621243  0.3892413486874926  0.5659964415467023
  0.7795306923653997  0.8909207845170231  0.5608715295160144
  0.4448513952976383  0.0546834357312063  0.5630522814655085
  0.4428225517598470  0.5699614671711490  0.5476667330276120
  0.9464420864487143  0.0570512795321331  0.5633424963061568
  0.9441978955465306  0.5557831128588879  0.5642029112021800
  0.4444528231484568  0.2166993558842062  0.5725743442507528
  0.4451049444229058  0.7280432725765188  0.5566820982411173
  0.9469736109227370  0.2237788283700899  0.5639416957276719
  0.9435796271937574  0.7218888019555655  0.5630879217804999
  0.4390544145399558  0.3665227060267322  0.5950473759426450
  0.4450519982571803  0.8910004634325893  0.5604037706572789
  0.9463068330173987  0.3899043247359975  0.5638800726399252
  0.9445375890992684  0.8890336704173091  0.5622907597108666
  0.2774852666652523  0.2189853275692759  0.5721971026731099
  0.2777523353600254  0.7236329327056791  0.5604720725861397
  0.7797494470684253  0.2233893961031064  0.5636777786054447
  0.7772546764125232  0.7225593762808716  0.5622327674204128
  0.4570280221764895  0.4748556161662507  0.5700801120395017

             NaN             NaN             NaN
             NaN             NaN             NaN
             NaN             NaN             NaN
             NaN             NaN             NaN
             NaN             NaN             NaN
             NaN             NaN             NaN
             NaN             NaN             NaN
             NaN             NaN             NaN
             NaN             NaN             NaN
             NaN             NaN             NaN
             NaN             NaN             NaN
             NaN             NaN             NaN
             NaN             NaN             NaN
             NaN             NaN             NaN
             NaN             NaN             NaN
             NaN             NaN             NaN
             NaN             NaN             NaN
             NaN             NaN             NaN
             NaN             NaN             NaN
             NaN             NaN             NaN
             NaN             NaN             NaN
             NaN             NaN             NaN
             NaN             NaN             NaN
             NaN             NaN             NaN
             NaN             NaN             NaN
             NaN             NaN             NaN
             NaN             NaN             NaN
             NaN             NaN             NaN
             NaN             NaN             NaN
             NaN             NaN             NaN
             NaN             NaN             NaN
             NaN             NaN             NaN
             NaN             NaN             NaN
             NaN             NaN             NaN
             NaN             NaN             NaN
             NaN             NaN             NaN
             NaN             NaN             NaN
             NaN             NaN             NaN
             NaN             NaN             NaN
             NaN             NaN             NaN
             NaN             NaN             NaN
             NaN             NaN             NaN
             NaN             NaN             NaN
             NaN             NaN             NaN
             NaN             NaN             NaN
             NaN             NaN             NaN
             NaN             NaN             NaN
             NaN             NaN             NaN
             NaN             NaN             NaN
             NaN             NaN             NaN
             NaN             NaN             NaN
             NaN             NaN             NaN
             NaN             NaN             NaN
             NaN             NaN             NaN
             NaN             NaN             NaN
             NaN             NaN             NaN
             NaN             NaN             NaN
             NaN             NaN             NaN
             NaN             NaN             NaN
             NaN             NaN             NaN
             NaN             NaN             NaN
             NaN             NaN             NaN
             NaN             NaN             NaN
             NaN             NaN             NaN
             NaN             NaN             NaN
             NaN             NaN             NaN
             NaN             NaN             NaN
             NaN             NaN             NaN
             NaN             NaN             NaN
             NaN             NaN             NaN
             NaN             NaN             NaN
             NaN             NaN             NaN
             NaN             NaN             NaN
             NaN             NaN             NaN
             NaN             NaN             NaN
             NaN             NaN             NaN
             NaN             NaN             NaN
             NaN             NaN             NaN
             NaN             NaN             NaN
             NaN             NaN             NaN
             NaN             NaN             NaN
             NaN             NaN             NaN
             NaN             NaN             NaN
             NaN             NaN             NaN
             NaN             NaN             NaN
             NaN             NaN             NaN
             NaN             NaN             NaN
             NaN             NaN             NaN
             NaN             NaN             NaN
             NaN             NaN             NaN
             NaN             NaN             NaN
             NaN             NaN             NaN
             NaN             NaN             NaN
             NaN             NaN             NaN
             NaN             NaN             NaN
             NaN             NaN             NaN
             NaN             NaN             NaN
             NaN             NaN             NaN
             NaN             NaN             NaN
             NaN             NaN             NaN
             NaN             NaN             NaN
             NaN             NaN             NaN
             NaN             NaN             NaN
             NaN             NaN             NaN
             NaN             NaN             NaN
             NaN             NaN             NaN
             NaN             NaN             NaN
             NaN             NaN             NaN
             NaN             NaN             NaN
             NaN             NaN             NaN
             NaN             NaN             NaN
             NaN             NaN             NaN
             NaN             NaN             NaN
             NaN             NaN             NaN
             NaN             NaN             NaN
             NaN             NaN             NaN
             NaN             NaN             NaN
             NaN             NaN             NaN
             NaN             NaN             NaN
             NaN             NaN             NaN
             NaN             NaN             NaN
             NaN             NaN             NaN
             NaN             NaN             NaN
             NaN             NaN             NaN
             NaN             NaN             NaN
             NaN             NaN             NaN
             NaN             NaN             NaN
             NaN             NaN             NaN
             NaN             NaN             NaN
             NaN             NaN             NaN
             NaN             NaN             NaN
             NaN             NaN             NaN
             NaN             NaN             NaN
             NaN             NaN             NaN
             NaN             NaN             NaN
             NaN             NaN             NaN
             NaN             NaN             NaN
             NaN             NaN             NaN
             NaN             NaN             NaN
             NaN             NaN             NaN
             NaN             NaN             NaN
             NaN             NaN             NaN
             NaN             NaN             NaN
             NaN             NaN             NaN
