C    Li                                 
   1.0000000000000000     
     7.4018740654000004    0.0000000000000000    0.0000000000000000
    -3.7009378863000002    6.4102104834000002    0.0000000000000000
     0.0000000000000000    0.0000000000000000   27.8030738831000015
   C    Li
    36     1
Direct
  0.0000594960437450  0.9999407081395731  0.4301356854281370
  0.9997928394192648  0.3332243247096436  0.4299035877699435
  0.0000572492416410  0.6667736513144353  0.4301343501023313
  0.3332265109656125  0.9999427974533571  0.4301343481608189
  0.3329479238591873  0.3325593445122078  0.4293377875598490
  0.3329488506840194  0.6670512153073450  0.4293373641395609
  0.6667758630546042  0.0002071386282622  0.4299035971597960
  0.6667727513307320  0.3332272156026048  0.4299026965162031
  0.6674407537983457  0.6670520764287151  0.4293378041654297
  0.0000297973993569  0.9999702022767255  0.5697241786241506
  0.9992375510046977  0.3329539395800774  0.5697571109958619
  0.0000331226421141  0.6667329605695136  0.5697250088355846
  0.3332671010358378  0.9999669722529529  0.5697250053502573
  0.3329660373670017  0.3326029283849997  0.5703348928515054
  0.3329707938270436  0.6670292255982057  0.5703352455053003
  0.6670460891436968  0.0007624870164231  0.5697571445928283
  0.6670447924288051  0.3329552658666363  0.5697576528456827
  0.6673970912895706  0.6670339741265768  0.5703349380138484
  0.1106436561872967  0.2219036257689201  0.4298519756301110
  0.1106475578766313  0.5554154028695697  0.4298507877002201
  0.1111080559048969  0.8888917967958523  0.4301553372114781
  0.4445824078006461  0.2219029714423538  0.4298507043056932
  0.4444442083093553  0.5555558716491374  0.4283243129826750
  0.4445844517560900  0.8893524975381022  0.4298507949448633
  0.7777740593715827  0.2222260191550393  0.4300974898068703
  0.7780970606346299  0.5554176382523947  0.4298507118565010
  0.7780962670920208  0.8893564536787620  0.4298519911266260
  0.2218439279237254  0.1103506719293266  0.5697637506366465
  0.2214918963544644  0.4440772908150325  0.5703303063546201
  0.2218451235274062  0.7781548565150235  0.5697643305918622
  0.5556253203439744  0.1111459752816475  0.5697199291318457
  0.5559181105028681  0.4440818902374994  0.5703305920611953
  0.5559227147439396  0.7785081082650875  0.5703303546374242
  0.8888573534239842  0.1111426802420203  0.5697191002724816
  0.8888540340479023  0.4443747193926246  0.5697199215279284
  0.8896493392057028  0.7781561293517932  0.5697637802801246
  0.4444447130736693  0.5555570798685885  0.5052948942195729

             NaN             NaN             NaN
             NaN             NaN             NaN
             NaN             NaN             NaN
             NaN             NaN             NaN
             NaN             NaN             NaN
             NaN             NaN             NaN
             NaN             NaN             NaN
             NaN             NaN             NaN
             NaN             NaN             NaN
             NaN             NaN             NaN
             NaN             NaN             NaN
             NaN             NaN             NaN
             NaN             NaN             NaN
             NaN             NaN             NaN
             NaN             NaN             NaN
             NaN             NaN             NaN
             NaN             NaN             NaN
             NaN             NaN             NaN
             NaN             NaN             NaN
             NaN             NaN             NaN
             NaN             NaN             NaN
             NaN             NaN             NaN
             NaN             NaN             NaN
             NaN             NaN             NaN
             NaN             NaN             NaN
             NaN             NaN             NaN
             NaN             NaN             NaN
             NaN             NaN             NaN
             NaN             NaN             NaN
             NaN             NaN             NaN
             NaN             NaN             NaN
             NaN             NaN             NaN
             NaN             NaN             NaN
             NaN             NaN             NaN
             NaN             NaN             NaN
             NaN             NaN             NaN
             NaN             NaN             NaN
