C    Li
   1.0000000000000000     
   7.4018740654000004   0.0000000000000000   0.0000000000000000
  -3.7009378863000002   6.4102104834000002   0.0000000000000000
   0.0000000000000000   0.0000000000000000  27.8030738831000015
C    Li
36  1  
Direct
  0.0000589015900826  0.9999410984099170  0.4301186702641256  
  0.9997945251618202  0.3332306058013094  0.4298829992312868  
  0.0000589015569072  0.6667844897213777  0.4301186702641256  
  0.3332155401326226  0.9999410984099170  0.4301186702641256  
  0.3329452530941434  0.3325571628664895  0.4292869894883337  
  0.3329452531165539  0.6670547767042716  0.4292869894883337  
  0.6667694238817699  0.0002054747825941  0.4298829992312868  
  0.6667694238261841  0.3332306058013094  0.4298829992312868  
  0.6674428669185171  0.6670547767042716  0.4292869894883337  
  0.0000300680810961  0.9999699319189040  0.5697919776207852  
  0.9992456357388272  0.3329561610898130  0.5698103649563593  
  0.0000300680479206  0.6667268227034047  0.5697919776207852  
  0.3332732071505953  0.9999699319189040  0.5697919776207852  
  0.3329685874926303  0.3326038316634628  0.5703185647485105  
  0.3329685875150408  0.6670314423057844  0.5703185647485105  
  0.6670438685932660  0.0007543642055870  0.5698103649563593  
  0.6670438685376803  0.3329561610898130  0.5698103649563593  
  0.6673961981215433  0.6670314423057844  0.5703185647485105  
  0.1106483234971864  0.2219071921200688  0.4298229649866138  
  0.1106483235396911  0.5554077583679282  0.4298229649866138  
  0.1111111418041304  0.8888889551685608  0.4301416178262407  
  0.4445922417089169  0.2219071921200688  0.4298229649866138  
  0.4444444476956235  0.5555555224313196  0.4282519079535779  
  0.4445922416146563  0.8893517361468081  0.4298229649866138  
  0.7777777911010091  0.2222222090349248  0.4300880644026250  
  0.7780928079232671  0.5554077583679282  0.4298229649866138  
  0.7780928079216044  0.8893517361468081  0.4298229649866138  
  0.2218465170159291  0.1103596609038022  0.5698152031636466  
  0.2214937548318378  0.4440802355201066  0.5703143071949952  
  0.2218464871254496  0.7781535128655049  0.5698152031636466  
  0.5556191381929650  0.1111428826137194  0.5697884757196575  
  0.5559198239680444  0.4440802355201066  0.5703143071949952  
  0.5559198240885453  0.7785062750310230  0.5703143071949952  
  0.8888571174947733  0.1111428826137194  0.5697884757196575  
  0.8888571173410971  0.4443809213137667  0.5697884757196575  
  0.8896403391715222  0.7781535128655049  0.5698152031636466  
  0.4444444476956235  0.5555555224313196  0.5051974266304342  
