C4                                      
   1.0000000000000000     
    37.0938796996999969    0.0000000000000000    0.0000000000000000
     0.0000000000000000    7.3546423911999996    0.0000000000000000
     0.0000000000000000    0.0000000000000000   27.8030738831000015
   C    H    Li
   108    12     1
Direct
  0.4996230220243968  0.8333459572111460  0.4366253530072527
  0.7306613365715930  0.8333161023293043  0.5633951490125776
  0.3842324693536359  0.8333467663472639  0.4362572529969198
  0.6150570144990244  0.8333518734626016  0.4367451515841410
  0.4419256862309416  0.6666933026978359  0.4365021051074830
  0.6728300711229485  0.6666889565441085  0.4365395793323789
  0.3265451037928288  0.6666921665489463  0.4361674611267449
  0.5573314242114031  0.6666999866664443  0.4367291279519929
  0.4996226842516908  0.1667087726649120  0.4366259378926329
  0.7306611298784632  0.1666207089936053  0.5633947582046999
  0.3842322586639656  0.1666933503998931  0.4362575040495578
  0.6150569974417812  0.1667054451354318  0.4367460500915967
  0.4419271020595564  0.0000192038523014  0.4364726406258044
  0.6728263349899348  0.0000214552667694  0.4365269427375849
  0.3265554778749019  0.0000183714091211  0.4361607967652455
  0.5573302055544381  0.0000221239711475  0.4366988401926588
  0.4996232123719792  0.5000217037035699  0.4366555974864675
  0.7306708831420407  0.4999689191110245  0.5634008250641516
  0.3842262110530784  0.5000191334455178  0.4362811963623951
  0.6150596606458958  0.5000270093230247  0.4367657489188201
  0.4419263431644015  0.3333500751130840  0.4365030301980478
  0.6728309739088135  0.3333664319495300  0.4365402146364183
  0.3265450710406017  0.3333449900336676  0.4361670170232522
  0.5573315618363660  0.3333432086591141  0.4367280806355106
  0.2692294597468349  0.8333607950733978  0.4365358081694882
  0.5002568818529557  0.8332778150219873  0.5632983149536025
  0.3848157278223047  0.8332993590962702  0.5632915719169121
  0.6156532235475590  0.8332984999089628  0.5636292204623041
  0.4425434536151436  0.6666361839264233  0.5632130226781044
  0.6733444686635077  0.6666433963500649  0.5637530742220369
  0.3270445023495076  0.6666363564059026  0.5635528516101153
  0.5579580110975902  0.6666435169596959  0.5634219713954071
  0.2692283650931513  0.1666752108439241  0.4365373423833018
  0.5002566288577759  0.1666438917706061  0.5632986869143841
  0.3848158327281624  0.1666399914952551  0.5632930457259416
  0.6156529954649199  0.1666462496222358  0.5636293502702941
  0.4425452611486108 -0.0000332368465344  0.5632449056410651
  0.6733313817011962 -0.0000269278087364  0.5637593843808308
  0.3270483923807203 -0.0000277518103159  0.5635695344165753
  0.5579570668843438 -0.0000280325677151  0.5634498258468777
  0.2692177869644565  0.5000191910437679  0.4365301634223815
  0.5002548798231182  0.4999608863563348  0.5632728240209109
  0.3848150051829807  0.4999661056403054  0.5632746934391237
  0.6156571117134938  0.4999752015739332  0.5636173792187643
  0.4425440150451795  0.3332909595022860  0.5632124729060108
  0.6733441750710560  0.3333022342186721  0.5637531481013425
  0.3270438387619311  0.3333142635037605  0.5635535551452623
  0.5579583197790589  0.3333008445431130  0.5634216571213614
  0.4611551056621777  0.8333492455308799  0.4365342714408554
  0.6919620689746951  0.8333537885868504  0.4363890784300850
  0.3456775063561707  0.8333432342290209  0.4361539891812973
  0.5765644067574961  0.8333567226711223  0.4367270790528321
  0.4034388882665235  0.6666894868815927  0.4363394090959029
  0.6342694067541749  0.6666939688989485  0.4367168821143019
  0.2876725069791546  0.6666770249959141  0.4363310206890052
  0.5188600973178090  0.6666932600465209  0.4366616103681609
  0.4611549815860470  0.1666917935938635  0.4365354969628918
  0.6919619185352307  0.1666927467252335  0.4363894083043449
  0.3456776518747214  0.1666959456955129  0.4361552940051286
  0.5765633598114760  0.1666920152294545  0.4367269826094249
  0.4034403398441606  0.0000251447215152  0.4363084893591401
  0.6342655011528460  0.0000256644460685  0.4367009402167254
  0.2876846242456453  0.0000193439944737  0.4363259458673008
  0.5188575691151310  0.0000293986299574  0.4366311429466213
  0.4611543855894815  0.5000225297004162  0.4365631529918650
  0.6919686007927236  0.5000289696108442  0.4363945456705626
  0.3456716019601830  0.5000159892048485  0.4361605081758991
  0.5765655393080943  0.5000229110710357  0.4367453688809761
  0.4034390846417044  0.3333518792737670  0.4363391082295304
  0.6342696458983487  0.3333615687616647  0.4367169765267429
  0.2876721660019652  0.3333583246194070  0.4363317170530353
  0.5188609888579848  0.3333579662306280  0.4366616104669536
  0.4810227252823155 -0.0000376402790258  0.5632896608481769
  0.7122035680675426 -0.0000286387606016  0.5636072342332922
  0.3656054495170977 -0.0000343135211088  0.5633704847623350
  0.5964455315469621 -0.0000274774263858  0.5635849424391285
  0.4233098341530607  0.8332965412236314  0.5632396631478748
  0.6542110032783350  0.8332954955262774  0.5637565956200721
  0.3079133022395750  0.8333067271493093  0.5637206133292955
  0.5387282304155038  0.8333005354197719  0.5633997378627009
  0.4810172190087220  0.3332940068152857  0.5632589256346677
  0.7122170666460689  0.3333094736423540  0.5635997125778434
  0.3656026290578904  0.3333032216433169  0.5633455243232890
  0.5964425560666231  0.3333027853080357  0.5635574880762999
  0.4233099609008019  0.1666373248573545  0.5632402107941513
  0.6542110461855370  0.1666508603584346  0.5637565639094101
  0.3079134945090826  0.1666402651057167  0.5637205066901072
  0.5387278811433696  0.1666417094091561  0.5633999164090175
  0.4810175404714140  0.6666287977333164  0.5632589333809742
  0.7122182318571539  0.6666327572051003  0.5636000112168091
  0.3656025779535411  0.6666372436280392  0.5633457137224955
  0.5964431974596877  0.6666400594905012  0.5635573368329101
  0.4233113721253553  0.4999659813954902  0.5632203990921416
  0.6542164443225212  0.4999729046195170  0.5637498613341670
  0.3079059210095256  0.4999760821535920  0.5637093192594660
  0.5387276208134240  0.4999722892425381  0.5633760513884706
  0.2690363756902212  0.8332974758829936  0.5640512767750540
  0.2690237634108509  0.4999708476480896  0.5640388612317864
  0.2690374805517059  0.1666365294770022  0.5640511383884717
  0.7308404617998989  0.8333476440922393  0.4361370479309264
  0.7308528335836617  0.5000187939157843  0.4361554437320050
  0.7308402092627621  0.1666927817891977  0.4361373693135962
  0.2505709260818719  0.6666537857330818  0.5642059578672394
  0.2505726181653969  0.3332794566173568  0.5642062157325745
  0.2505798553005652 -0.0000280939217223  0.5642189130130540
  0.7493013301674409  0.0000252464330513  0.4360419664468452
  0.7493100703301830  0.3333398311557961  0.4360480300825513
  0.7493106721477008  0.6666988380097740  0.4360483199533677
  0.2397597828576975  0.8334816702189528  0.4370672939481962
  0.2397491754738263  0.5000199160760846  0.4370666616158130
  0.2397591337438232  0.1665544641853727  0.4370680595165901
  0.7601302033135916  0.8334232357483512  0.5628712098177094
  0.7601409468735334  0.4999693622224066  0.5628759371641796
  0.7601304992152080  0.1665157252957519  0.5628710893543618
  0.2210975372386158  0.6667400199773001  0.5644577739721006
  0.2211008845558885  0.3332072233924445  0.5644579375102046
  0.2211027105617644 -0.0000249188856839  0.5644449594552431
  0.7787784316685721  0.0000186414602747  0.4359271370435041
  0.7787810256942568  0.3332613990928475  0.4359112188631910
  0.7787831941234256  0.6667710441675552  0.4359117313162350
  0.1402200000000000  0.3328724480372010  0.5001593669007353

  0.00000000E+00  0.00000000E+00  0.00000000E+00
  0.00000000E+00  0.00000000E+00  0.00000000E+00
  0.00000000E+00  0.00000000E+00  0.00000000E+00
  0.00000000E+00  0.00000000E+00  0.00000000E+00
  0.00000000E+00  0.00000000E+00  0.00000000E+00
  0.00000000E+00  0.00000000E+00  0.00000000E+00
  0.00000000E+00  0.00000000E+00  0.00000000E+00
  0.00000000E+00  0.00000000E+00  0.00000000E+00
  0.00000000E+00  0.00000000E+00  0.00000000E+00
  0.00000000E+00  0.00000000E+00  0.00000000E+00
  0.00000000E+00  0.00000000E+00  0.00000000E+00
  0.00000000E+00  0.00000000E+00  0.00000000E+00
  0.00000000E+00  0.00000000E+00  0.00000000E+00
  0.00000000E+00  0.00000000E+00  0.00000000E+00
  0.00000000E+00  0.00000000E+00  0.00000000E+00
  0.00000000E+00  0.00000000E+00  0.00000000E+00
  0.00000000E+00  0.00000000E+00  0.00000000E+00
  0.00000000E+00  0.00000000E+00  0.00000000E+00
  0.00000000E+00  0.00000000E+00  0.00000000E+00
  0.00000000E+00  0.00000000E+00  0.00000000E+00
  0.00000000E+00  0.00000000E+00  0.00000000E+00
  0.00000000E+00  0.00000000E+00  0.00000000E+00
  0.00000000E+00  0.00000000E+00  0.00000000E+00
  0.00000000E+00  0.00000000E+00  0.00000000E+00
  0.00000000E+00  0.00000000E+00  0.00000000E+00
  0.00000000E+00  0.00000000E+00  0.00000000E+00
  0.00000000E+00  0.00000000E+00  0.00000000E+00
  0.00000000E+00  0.00000000E+00  0.00000000E+00
  0.00000000E+00  0.00000000E+00  0.00000000E+00
  0.00000000E+00  0.00000000E+00  0.00000000E+00
  0.00000000E+00  0.00000000E+00  0.00000000E+00
  0.00000000E+00  0.00000000E+00  0.00000000E+00
  0.00000000E+00  0.00000000E+00  0.00000000E+00
  0.00000000E+00  0.00000000E+00  0.00000000E+00
  0.00000000E+00  0.00000000E+00  0.00000000E+00
  0.00000000E+00  0.00000000E+00  0.00000000E+00
  0.00000000E+00  0.00000000E+00  0.00000000E+00
  0.00000000E+00  0.00000000E+00  0.00000000E+00
  0.00000000E+00  0.00000000E+00  0.00000000E+00
  0.00000000E+00  0.00000000E+00  0.00000000E+00
  0.00000000E+00  0.00000000E+00  0.00000000E+00
  0.00000000E+00  0.00000000E+00  0.00000000E+00
  0.00000000E+00  0.00000000E+00  0.00000000E+00
  0.00000000E+00  0.00000000E+00  0.00000000E+00
  0.00000000E+00  0.00000000E+00  0.00000000E+00
  0.00000000E+00  0.00000000E+00  0.00000000E+00
  0.00000000E+00  0.00000000E+00  0.00000000E+00
  0.00000000E+00  0.00000000E+00  0.00000000E+00
  0.00000000E+00  0.00000000E+00  0.00000000E+00
  0.00000000E+00  0.00000000E+00  0.00000000E+00
  0.00000000E+00  0.00000000E+00  0.00000000E+00
  0.00000000E+00  0.00000000E+00  0.00000000E+00
  0.00000000E+00  0.00000000E+00  0.00000000E+00
  0.00000000E+00  0.00000000E+00  0.00000000E+00
  0.00000000E+00  0.00000000E+00  0.00000000E+00
  0.00000000E+00  0.00000000E+00  0.00000000E+00
  0.00000000E+00  0.00000000E+00  0.00000000E+00
  0.00000000E+00  0.00000000E+00  0.00000000E+00
  0.00000000E+00  0.00000000E+00  0.00000000E+00
  0.00000000E+00  0.00000000E+00  0.00000000E+00
  0.00000000E+00  0.00000000E+00  0.00000000E+00
  0.00000000E+00  0.00000000E+00  0.00000000E+00
  0.00000000E+00  0.00000000E+00  0.00000000E+00
  0.00000000E+00  0.00000000E+00  0.00000000E+00
  0.00000000E+00  0.00000000E+00  0.00000000E+00
  0.00000000E+00  0.00000000E+00  0.00000000E+00
  0.00000000E+00  0.00000000E+00  0.00000000E+00
  0.00000000E+00  0.00000000E+00  0.00000000E+00
  0.00000000E+00  0.00000000E+00  0.00000000E+00
  0.00000000E+00  0.00000000E+00  0.00000000E+00
  0.00000000E+00  0.00000000E+00  0.00000000E+00
  0.00000000E+00  0.00000000E+00  0.00000000E+00
  0.00000000E+00  0.00000000E+00  0.00000000E+00
  0.00000000E+00  0.00000000E+00  0.00000000E+00
  0.00000000E+00  0.00000000E+00  0.00000000E+00
  0.00000000E+00  0.00000000E+00  0.00000000E+00
  0.00000000E+00  0.00000000E+00  0.00000000E+00
  0.00000000E+00  0.00000000E+00  0.00000000E+00
  0.00000000E+00  0.00000000E+00  0.00000000E+00
  0.00000000E+00  0.00000000E+00  0.00000000E+00
  0.00000000E+00  0.00000000E+00  0.00000000E+00
  0.00000000E+00  0.00000000E+00  0.00000000E+00
  0.00000000E+00  0.00000000E+00  0.00000000E+00
  0.00000000E+00  0.00000000E+00  0.00000000E+00
  0.00000000E+00  0.00000000E+00  0.00000000E+00
  0.00000000E+00  0.00000000E+00  0.00000000E+00
  0.00000000E+00  0.00000000E+00  0.00000000E+00
  0.00000000E+00  0.00000000E+00  0.00000000E+00
  0.00000000E+00  0.00000000E+00  0.00000000E+00
  0.00000000E+00  0.00000000E+00  0.00000000E+00
  0.00000000E+00  0.00000000E+00  0.00000000E+00
  0.00000000E+00  0.00000000E+00  0.00000000E+00
  0.00000000E+00  0.00000000E+00  0.00000000E+00
  0.00000000E+00  0.00000000E+00  0.00000000E+00
  0.00000000E+00  0.00000000E+00  0.00000000E+00
  0.00000000E+00  0.00000000E+00  0.00000000E+00
  0.00000000E+00  0.00000000E+00  0.00000000E+00
  0.00000000E+00  0.00000000E+00  0.00000000E+00
  0.00000000E+00  0.00000000E+00  0.00000000E+00
  0.00000000E+00  0.00000000E+00  0.00000000E+00
  0.00000000E+00  0.00000000E+00  0.00000000E+00
  0.00000000E+00  0.00000000E+00  0.00000000E+00
  0.00000000E+00  0.00000000E+00  0.00000000E+00
  0.00000000E+00  0.00000000E+00  0.00000000E+00
  0.00000000E+00  0.00000000E+00  0.00000000E+00
  0.00000000E+00  0.00000000E+00  0.00000000E+00
  0.00000000E+00  0.00000000E+00  0.00000000E+00
  0.00000000E+00  0.00000000E+00  0.00000000E+00
  0.00000000E+00  0.00000000E+00  0.00000000E+00
  0.00000000E+00  0.00000000E+00  0.00000000E+00
  0.00000000E+00  0.00000000E+00  0.00000000E+00
  0.00000000E+00  0.00000000E+00  0.00000000E+00
  0.00000000E+00  0.00000000E+00  0.00000000E+00
  0.00000000E+00  0.00000000E+00  0.00000000E+00
  0.00000000E+00  0.00000000E+00  0.00000000E+00
  0.00000000E+00  0.00000000E+00  0.00000000E+00
  0.00000000E+00  0.00000000E+00  0.00000000E+00
  0.00000000E+00  0.00000000E+00  0.00000000E+00
  0.00000000E+00  0.00000000E+00  0.00000000E+00
  0.00000000E+00  0.00000000E+00  0.00000000E+00
  0.00000000E+00  0.00000000E+00  0.00000000E+00
