C    Li                                 
   1.0000000000000000     
     7.4018740654000004    0.0000000000000000    0.0000000000000000
    -3.7009378863000002    6.4102104834000002    0.0000000000000000
     0.0000000000000000    0.0000000000000000   27.8030738831000015
   C    Li
    36     1
Direct
  0.9996671651343223  0.0003328878051236  0.4302138763345696
  0.9995243852598191  0.3335935959733239  0.4301573095994185
  0.0001407040509246  0.6672854095508902  0.4303516428272464
  0.3327145918029790  0.9998593200856122  0.4303516285245333
  0.3322059821398466  0.3332669603798443  0.4292312709522276
  0.3324345996495891  0.6675654368864937  0.4296420652244168
  0.6664064181467594  0.0004756419007413  0.4301573140779184
  0.6665641827334732  0.3334358313374006  0.4301161531305241
  0.6667331235778666  0.6677940907966933  0.4292312899326732
  1.0000963872380171 -0.0000964030603473  0.5698163275827103
  0.9999869725454580  0.3330545987196005  0.5698160795847291
  0.0002895363470090  0.6666104179905683  0.5700469210645150
  0.3333895913577593  0.9997104603367185  0.5700469132489183
  0.3328244749038787  0.3327457595815980  0.5708014736326780
  0.3332831524006477  0.6667168661506131  0.5700936765729309
  0.6669454338886361  0.0000130345600854  0.5698160852591392
  0.6673151645714297  0.3326848116705099  0.5708216758749313
  0.6672542019137693  0.6671754721317472  0.5708014900344782
  0.1099300885238655  0.2221603017751345  0.4299909741013823
  0.1105988782233451  0.5559198454419427  0.4301078309514446
  0.1108152858796883  0.8891847245784853  0.4302913660084922
  0.4438920524427701  0.2220955442876329  0.4299384420722930
  0.4435446801180831  0.5564554101096567  0.4286378662604625
  0.4440801635788154  0.8894011503872415  0.4301078282730088
  0.7776388200200630  0.2223611940191839  0.4304038982030966
  0.7779044877373399  0.5561079662973928  0.4299384588227609
  0.7778397527668814  0.8900699735372940  0.4299909917090265
  0.2220193215198340  0.1103860366467815  0.5701205368970527
  0.2219970894916773  0.4444214181444987  0.5701694909331718
  0.2222853366164584  0.7777146688422562  0.5698266135533182
  0.5556203807432000  0.1106097665226406  0.5701632168976561
  0.5559605499624581  0.4440393855974394  0.5719515608672522
  0.5555786015659130  0.7780029093169527  0.5701695002215855
  0.8890174836150919  0.1109825406095144  0.5698017934714639
  0.8893902230894388  0.4443796355767934  0.5701632207190526
  0.8896139329338997  0.7779806551537838  0.5701205526481645
  0.5274895426614034  0.4725104672458081  0.4965921172872499

             NaN             NaN             NaN
             NaN             NaN             NaN
             NaN             NaN             NaN
             NaN             NaN             NaN
             NaN             NaN             NaN
             NaN             NaN             NaN
             NaN             NaN             NaN
             NaN             NaN             NaN
             NaN             NaN             NaN
             NaN             NaN             NaN
             NaN             NaN             NaN
             NaN             NaN             NaN
             NaN             NaN             NaN
             NaN             NaN             NaN
             NaN             NaN             NaN
             NaN             NaN             NaN
             NaN             NaN             NaN
             NaN             NaN             NaN
             NaN             NaN             NaN
             NaN             NaN             NaN
             NaN             NaN             NaN
             NaN             NaN             NaN
             NaN             NaN             NaN
             NaN             NaN             NaN
             NaN             NaN             NaN
             NaN             NaN             NaN
             NaN             NaN             NaN
             NaN             NaN             NaN
             NaN             NaN             NaN
             NaN             NaN             NaN
             NaN             NaN             NaN
             NaN             NaN             NaN
             NaN             NaN             NaN
             NaN             NaN             NaN
             NaN             NaN             NaN
             NaN             NaN             NaN
             NaN             NaN             NaN
