C    Li
   1.0000000000000000     
   7.4018740654000004   0.0000000000000000   0.0000000000000000
  -3.7009378863000002   6.4102104834000002   0.0000000000000000
   0.0000000000000000   0.0000000000000000  27.8030738831000015
C    Li
36  1  
Direct
  0.9999921752728720  0.0000078247271276  0.4301856613229730  
  0.9999260811241160  0.3332625585954860  0.4301267435647630  
  0.0005804982948519  0.6669790238015100  0.4301718709966810  
  0.3330210060524910  0.9994195016719730  0.4301718709966810  
  0.3326891872548500  0.3328657313802880  0.4295828013758580  
  0.3329534342735910  0.6670465955472340  0.4299639508027370  
  0.6667374710875930  0.0000739188202985  0.4301267435647630  
  0.6669659375135030  0.3330340921139910  0.4297318038115990  
  0.6671342984047260  0.6673108425435640  0.4295828013758580  
  0.9999633412679360  0.0000366587320642  0.5698589706560430  
  0.9997672331406730  0.3331506961622280  0.5698635674899390  
  0.0001616228787640  0.6667587735275901  0.5700357235034520  
  0.3332412563264100  0.9998383770880610  0.5700357235034520  
  0.3326600212776750  0.3328598987911280  0.5706143777514110  
  0.3331651013926380  0.6668349284281870  0.5701673702853820  
  0.6668493335208510  0.0002327668037410  0.5698635674899390  
  0.6670520484797750  0.3329479811477190  0.5704873278033770  
  0.6671401309938790  0.6673400085207390  0.5706143777514110  
  0.1104318267802280  0.2218616635808890  0.4300943158931430  
  0.1110192463555040  0.5555662555797340  0.4301143614592320  
  0.1111349509661750  0.8888650733921110  0.4301940246691420  
  0.4442082142697000  0.2215970908088210  0.4297199886428370  
  0.4441712656969300  0.5558287044300130  0.4293272243845790  
  0.4444337220556920  0.8889807686366780  0.4301143614592320  
  0.7780595823263280  0.2219404178096060  0.4301605907471430  
  0.7784029092345151  0.5557917634141630  0.4297199886428370  
  0.7781383365065930  0.8895681881694490  0.4300943158931430  
  0.2218920338399220  0.1105761283013750  0.5700865557105100  
  0.2218038433535410  0.4444642466912750  0.5702113317183470  
  0.2221282897277280  0.7778717215103800  0.5698877310924571  
  0.5554606190198830  0.1107719337288490  0.5700798738495150  
  0.5556466425519840  0.4443533946625780  0.5713896247392540  
  0.5555357905702180  0.7781961753357360  0.5702113317183470  
  0.8888809510669660  0.1111190490415270  0.5698408846682880  
  0.8892280662995300  0.4445394181396910  0.5700798738495150  
  0.8894238717739500  0.7781079847943601  0.5700865557105100  
  0.5277777984838750  0.4722222163903850  0.4974012638200090  
