C    Li
   1.0000000000000000     
   7.4018740654000004   0.0000000000000000   0.0000000000000000
  -3.7009378863000002   6.4102104834000002   0.0000000000000000
   0.0000000000000000   0.0000000000000000  27.8030738831000015
C    Li
36  1  
Direct
  0.9999699331671340  0.0000300668328656  0.4302079916759219  
  0.9999699331115482  0.3332732095268751  0.4302079916759219  
  0.0007543638741703  0.6670438684948853  0.4301896045742035  
  0.3329561613591149  0.9992456360926550  0.4301896045742035  
  0.3326038319750875  0.3329685875515493  0.4296814053383655  
  0.3329561613259397  0.6670438684948853  0.4301896045742035  
  0.6667268201562039  0.0000300668328656  0.4302079916759219  
  0.6670314420759440  0.3329685875515493  0.4296814053383655  
  0.6670314422334571  0.6673961978233267  0.4296814053383655  
  0.9999410989968780  0.0000589010031217  0.5698813016677954  
  0.9999410989412928  0.3332155411863630  0.5698813016677954  
  0.0002054744890407  0.6667694238023205  0.5701169721310043  
  0.3332306060516798  0.9997945254777840  0.5701169721310043  
  0.3325571658726889  0.3329452545003502  0.5707129820857136  
  0.3332306060185045  0.6667694238023205  0.5701169721310043  
  0.6667844884967163  0.0000589010031217  0.5698813016677954  
  0.6670547751271434  0.3329452545003502  0.5707129820857136  
  0.6670547752846565  0.6674428639257250  0.5707129820857136  
  0.1103596612079130  0.2218464874011645  0.4301847661953196  
  0.1111428872941116  0.5556190879836659  0.4302114936167761  
  0.1111428873535271  0.8888571127999644  0.4302114936167761  
  0.4440802051232965  0.2214937237050753  0.4296856631949095  
  0.4440802050306986  0.5559197650962443  0.4296856631949095  
  0.4443808822027000  0.8888571127999644  0.4302114936167761  
  0.7781535127347695  0.2218464874011645  0.4301847661953196  
  0.7785062763382610  0.5559197650962443  0.4296856631949095  
  0.7781535127015943  0.8896403388436585  0.4301847661953196  
  0.2219072061145891  0.1106482841005631  0.5701770065594632  
  0.2219072061941060  0.4445922504150014  0.5701770065594632  
  0.2222222239284832  0.7777777910586749  0.5699119070687245  
  0.5554077792955189  0.1106482841005631  0.5701770065594632  
  0.5555555820799611  0.4444444477100689  0.5717480639206709  
  0.5554077793974391  0.7780928087706416  0.5701770065594632  
  0.8888888955910303  0.1111111045174624  0.5698583543178358  
  0.8893517159523440  0.4445922504150014  0.5701770065594632  
  0.8893517159747616  0.7780928087706416  0.5701770065594632  
  0.5555555820799611  0.4444444477100689  0.4948025428831970  
