C    H    Li                            
   1.0000000000000000     
    37.2234382628999967    0.0000000000000000    0.0000000000000000
     0.0000000000000000    8.5469398498999993    0.0000000000000000
     0.0000000000000000    0.0000000000000000   27.8030738831000015
   C    H    Li
   104    16     1
Direct
  0.4667828504318632  0.0035798553717341  0.4360370175427125
  0.4667831873189998  0.5035794698460295  0.4360380733250863
  0.4337001910298818  0.2535456122242580  0.4360358523022686
  0.4336997087553404  0.7535441768046516  0.4360302637866736
  0.3341962467456978  0.0032557244997899  0.4361019304178285
  0.3341941559478444  0.5033002476402035  0.4361201229298016
  0.3017752629233054  0.2571213263904469  0.4363827121387606
  0.3017665323465794  0.7571113105165042  0.4363708691407292
  0.4005674880904792  0.0040854274581403  0.4360293548672343
  0.4005660094424948  0.5040785773394610  0.4360370338311115
  0.3672786177431919  0.2536530081035714  0.4360301987795778
  0.3672835290838020  0.7536581571600370  0.4360126610566334
  0.4667803134274857  0.9964139100601308  0.5639613894498380
  0.4667813804026660  0.4964141235587604  0.5639596514125342
  0.4336987548964539  0.2464484876438597  0.5639609698672087
  0.4336972551726059  0.7464488881060812  0.5639675053971098
  0.3341899083282913  0.9967106461841010  0.5638837040703980
  0.3341938883466565  0.4967229778918177  0.5638875503080422
  0.3017768340669690  0.2428739589416907  0.5636536093304358
  0.3017658148099907  0.7428660487351884  0.5636087689323550
  0.4005638595213665  0.9959135776293444  0.5639671807035953
  0.4005651450733838  0.4959099895604782  0.5639631396987181
  0.3672791329236306  0.2463370451707179  0.5639699324259202
  0.3672802007992508  0.7463383248582932  0.5639822641709820
  0.4667808045501942  0.1703819664650796  0.4360317980264550
  0.4667803017098802  0.6703814334201401  0.4360306866226448
  0.4336973200441930  0.4205149551426011  0.4360278639752569
  0.4336969282992592  0.9205163962638466  0.4360224997697587
  0.3342014306956912  0.1710290511437593  0.4361062915631823
  0.3342030408570942  0.6710728531790460  0.4360990209311361
  0.3017605782481515  0.4172355504104075  0.4363457712393771
  0.3017540784160046  0.9172396746660516  0.4363241695182201
  0.4005644978544137  0.1701178099382826  0.4360182199274760
  0.4005659086700583  0.6701103123680292  0.4360114200738661
  0.3672738470766661  0.4206124589384505  0.4360326197701537
  0.3672792608695402  0.9206049182908159  0.4360117297267148
  0.3017514509968994  0.0827636126154273  0.5636570247255055
  0.3017520220698395  0.5827385835767420  0.5636574287377574
  0.4667796014995672  0.3296119340035707  0.5639653140976243
  0.4667780799139178  0.8296122418437442  0.5639683683294696
  0.3672721689919891  0.0793818754533864  0.5639751823866267
  0.3672753055676599  0.5793875475399416  0.5639777509307184
  0.3342023863509474  0.3289613968019117  0.5638997012263683
  0.3341988890387416  0.8289236767461818  0.5638956740845809
  0.4336944863633307  0.0794787770971787  0.5639723866485995
  0.4336952609994917  0.5794772133076705  0.5639728678894107
  0.4005634357854279  0.3298788303789538  0.5639759575210813
  0.4005632157297488  0.8298810278924293  0.5639884670299833
  0.5331366340196401  0.9964109637695715  0.5639715073338039
  0.5331364733446803  0.4964116616397206  0.5639714071409632
  0.5662187346919789  0.7464432297562311  0.5639815014550397
  0.5662181562308560  0.2464442624584186  0.5639816737354495
  0.6657110757277248  0.9967153295018821  0.5639319006803843
  0.6657117607306720  0.4967156495363970  0.5639312032820608
  0.6981353403501287  0.7428795655978475  0.5636969469256138
  0.6981361012554087  0.2428780860545194  0.5637108213057260
  0.4999590178740091  0.7461767758741271  0.5639509147642896
  0.4999594963558875  0.2461745178513910  0.5639502109014691
  0.5993470682085432  0.9959026338127940  0.5639929192243617
  0.5993473560537912  0.4959012822395908  0.5639934263830106
  0.6326301019032557  0.7463272127580705  0.5640084035663074
  0.6326312557384977  0.2463284000938518  0.5640110171759043
  0.5331387198076843  0.0035820763394988  0.4360279320604859
  0.5331381643033242  0.5035828516889117  0.4360280675314196
  0.5662207432843779  0.7535499428304512  0.4360181660178635
  0.5662199454884881  0.2535498761415824  0.4360180857573785
  0.6657129312112938  0.0032771062627284  0.4360689988449454
  0.6657136659994108  0.5032775124765515  0.4360691696515169
  0.6981370582696426  0.7571149187019979  0.4362932086311791
  0.6981379313499874  0.2571130300690901  0.4363027340659872
  0.4999611680697918  0.7538180420022368  0.4360480020741987
  0.4999612047016483  0.2538178197712246  0.4360487556971865
  0.5993490201180252  0.0040927429047972  0.4360069693220271
  0.5993491556473858  0.5040903810370246  0.4360065288933546
  0.6326319173455315  0.7536655583425597  0.4359896936584272
  0.6326331059807095  0.2536653119998064  0.4359910966577742
  0.5331400895615630  0.8296102103820927  0.5639762593676926
  0.5331394630706078  0.3296103614073521  0.5639761827970022
  0.5662200777710248  0.5794721775257015  0.5639915663205501
  0.5662199671705883  0.0794730614342101  0.5639914442990875
  0.6657037683311020  0.8289276801418602  0.5639377729074309
  0.6657050171653874  0.3289276318234644  0.5639432474031737
  0.6981500289449358  0.5827537935714383  0.5637344603973549
  0.6981498064678733  0.0827502045678954  0.5637436322797011
  0.4999588926186391  0.5798907084255376  0.5639653496825618
  0.4999585990305161  0.0798885597787961  0.5639654725068464
  0.5993496244014928  0.8298771688653016  0.5640075843321307
  0.5993499711938003  0.3298762987132502  0.5640083899089181
  0.6326354141045811  0.5793783596700534  0.5640095027254740
  0.6326353400519177  0.0793792717471773  0.5640107618581198
  0.6981514831098738  0.9172402338626319  0.4362594001732553
  0.6981522002163381  0.4172412890550058  0.4362651784169117
  0.4999605161208265  0.9201039698634668  0.4360329524010086
  0.4999605363574310  0.4201041386704961  0.4360338067671927
  0.5331417101244869  0.6703837564740796  0.4360232473231334
  0.5331411698834917  0.1703829201294193  0.4360233069676296
  0.6326368210046095  0.9206139735216281  0.4359897457096383
  0.6326379382638236  0.4206141313103499  0.4359901562418939
  0.6657058059753326  0.6710657699670772  0.4360584518096509
  0.6657066516688998  0.1710652669356550  0.4360620640878719
  0.5662220142138733  0.9205212153421072  0.4360083478833961
  0.5662212281333772  0.4205211746401431  0.4360081695393300
  0.5993514734422002  0.6701156491671971  0.4359916692012712
  0.5993516606839029  0.1701180651242633  0.4359919357821477
  0.7238752898048774  0.9777541349086867  0.4365470533635818
  0.7238759657350153  0.4777536413101151  0.4365557149555212
  0.7238461118785759  0.8034814104994880  0.5633383537032437
  0.7238472632206144  0.3034757119147973  0.5633574102789731
  0.7238480198747753  0.6965133281077188  0.4366479055327978
  0.7238490325034986  0.1965150073926905  0.4366613415028099
  0.7238734822765348  0.0222367338828315  0.5634569366614249
  0.7238739400801136  0.5222401119051794  0.5634430995178855
  0.2760059623591074  0.0223433288812442  0.5632983357414429
  0.2760027767517859  0.5222536206272913  0.5632955328204241
  0.2760248991609939  0.1966094114889283  0.4368028918655561
  0.2760544948498955  0.6964703217028390  0.4367722818685130
  0.2760227471326989  0.3034308175892561  0.5632763492213299
  0.2760520940501012  0.8034643251178735  0.5632046205635148
  0.2760269659451516  0.9777869659103404  0.4366521685819214
  0.2759973717590460  0.4776521795232174  0.4367057413075065
  0.1926258603757973  0.3313845836927891  0.5000162345503492

             NaN             NaN             NaN
             NaN             NaN             NaN
             NaN             NaN             NaN
             NaN             NaN             NaN
             NaN             NaN             NaN
             NaN             NaN             NaN
             NaN             NaN             NaN
             NaN             NaN             NaN
             NaN             NaN             NaN
             NaN             NaN             NaN
             NaN             NaN             NaN
             NaN             NaN             NaN
             NaN             NaN             NaN
             NaN             NaN             NaN
             NaN             NaN             NaN
             NaN             NaN             NaN
             NaN             NaN             NaN
             NaN             NaN             NaN
             NaN             NaN             NaN
             NaN             NaN             NaN
             NaN             NaN             NaN
             NaN             NaN             NaN
             NaN             NaN             NaN
             NaN             NaN             NaN
             NaN             NaN             NaN
             NaN             NaN             NaN
             NaN             NaN             NaN
             NaN             NaN             NaN
             NaN             NaN             NaN
             NaN             NaN             NaN
             NaN             NaN             NaN
             NaN             NaN             NaN
             NaN             NaN             NaN
             NaN             NaN             NaN
             NaN             NaN             NaN
             NaN             NaN             NaN
             NaN             NaN             NaN
             NaN             NaN             NaN
             NaN             NaN             NaN
             NaN             NaN             NaN
             NaN             NaN             NaN
             NaN             NaN             NaN
             NaN             NaN             NaN
             NaN             NaN             NaN
             NaN             NaN             NaN
             NaN             NaN             NaN
             NaN             NaN             NaN
             NaN             NaN             NaN
             NaN             NaN             NaN
             NaN             NaN             NaN
             NaN             NaN             NaN
             NaN             NaN             NaN
             NaN             NaN             NaN
             NaN             NaN             NaN
             NaN             NaN             NaN
             NaN             NaN             NaN
             NaN             NaN             NaN
             NaN             NaN             NaN
             NaN             NaN             NaN
             NaN             NaN             NaN
             NaN             NaN             NaN
             NaN             NaN             NaN
             NaN             NaN             NaN
             NaN             NaN             NaN
             NaN             NaN             NaN
             NaN             NaN             NaN
             NaN             NaN             NaN
             NaN             NaN             NaN
             NaN             NaN             NaN
             NaN             NaN             NaN
             NaN             NaN             NaN
             NaN             NaN             NaN
             NaN             NaN             NaN
             NaN             NaN             NaN
             NaN             NaN             NaN
             NaN             NaN             NaN
             NaN             NaN             NaN
             NaN             NaN             NaN
             NaN             NaN             NaN
             NaN             NaN             NaN
             NaN             NaN             NaN
             NaN             NaN             NaN
             NaN             NaN             NaN
             NaN             NaN             NaN
             NaN             NaN             NaN
             NaN             NaN             NaN
             NaN             NaN             NaN
             NaN             NaN             NaN
             NaN             NaN             NaN
             NaN             NaN             NaN
             NaN             NaN             NaN
             NaN             NaN             NaN
             NaN             NaN             NaN
             NaN             NaN             NaN
             NaN             NaN             NaN
             NaN             NaN             NaN
             NaN             NaN             NaN
             NaN             NaN             NaN
             NaN             NaN             NaN
             NaN             NaN             NaN
             NaN             NaN             NaN
             NaN             NaN             NaN
             NaN             NaN             NaN
             NaN             NaN             NaN
             NaN             NaN             NaN
             NaN             NaN             NaN
             NaN             NaN             NaN
             NaN             NaN             NaN
             NaN             NaN             NaN
             NaN             NaN             NaN
             NaN             NaN             NaN
             NaN             NaN             NaN
             NaN             NaN             NaN
             NaN             NaN             NaN
             NaN             NaN             NaN
             NaN             NaN             NaN
             NaN             NaN             NaN
             NaN             NaN             NaN
             NaN             NaN             NaN
             NaN             NaN             NaN
             NaN             NaN             NaN
