C    H    Li                            
   1.0000000000000000     
    37.0938796996999969    0.0000000000000000    0.0000000000000000
     0.0000000000000000    7.3546423911999996    0.0000000000000000
     0.0000000000000000    0.0000000000000000   27.8030738831000015
   C    H    Li
   108    12     1
Direct
  0.4994866079279559  0.8333701580488312  0.4366751780636036
  0.7303692404744229  0.8332916928227599  0.5631096256014265
  0.3840671964665438  0.8333742386861113  0.4362183799308685
  0.6149451474055183  0.8333676243890522  0.4370168289175101
  0.4417735955828386  0.6667025615257157  0.4364208741631642
  0.6727267369708677  0.6667017389510498  0.4367763701708068
  0.3263792190954986  0.6667434741065530  0.4361485472531711
  0.5572067160189694  0.6667019521000126  0.4369173269935672
  0.4994866749113553  0.1667044746125318  0.4366729690000532
  0.7303696138328691  0.1666238455692705  0.5631096228251251
  0.3840594637312063  0.1667105746197263  0.4361952592373459
  0.6149451773410874  0.1667009680989176  0.4370166145100451
  0.4417736512951475  0.0000386903893860  0.4364207119801163
  0.6727267305194800  0.0000346867611672  0.4367763390081269
  0.3263789795733394  1.0000129512286142  0.4361475791731345
  0.5572067127927671  0.0000340220355838  0.4369172781254248
  0.4994866499661065  0.5000359234583011  0.4366730637374881
  0.7303696472268231  0.4999595053569922  0.5631096024710690
  0.3840595156270900  0.5000370983837361  0.4361958905896572
  0.6149451820427926  0.5000342957135627  0.4370166531450781
  0.4417720909104795  0.3333705094806694  0.4364165108421476
  0.6727266846774254  0.3333682143152361  0.4367764320772350
  0.3263697336573417  0.3333762841873666  0.4361166107107570
  0.5572067794239582  0.3333680263512963  0.4369168318636876
  0.2690446502957233  0.8333771302373714  0.4362697826827243
  0.4998746092554908  0.8332946098620890  0.5632315087857834
  0.3843491308564902  0.8332760680779420  0.5626336704229280
  0.6153351367697503  0.8332955171434844  0.5637048339645241
  0.4421204889917095  0.6666050453024034  0.5628884277790440
  0.6730352550757913  0.6666222310849631  0.5636954681141088
  0.3265209889841897  0.6665936935541004  0.5627034025162022
  0.5576118310031705  0.6666255632083987  0.5635183967751636
  0.2691284373282424  0.1665957278931516  0.4359454424217613
  0.4998743779188349  0.1666224624007308  0.5632258893475954
  0.3843353412956874  0.1666248702905617  0.5625768345497614
  0.6153344534267733  0.1666268144491083  0.5637045182545912
  0.4421204527243953  0.9999554319388001  0.5628897553460093
  0.6730352340777711  0.9999569413535159  0.5636954084343974
  0.3265206628534786  0.9999549977461831  0.5627047524812898
  0.5576118700198726  0.9999577715213707  0.5635184529715843
  0.2691285955890502  0.5001613809774006  0.4359459947224283
  0.4998742750748344  0.4999666230411426  0.5632257556404459
  0.3843353741797539  0.4999260613672626  0.5625764386837379
  0.6153344448568606  0.4999644531552054  0.5637045743343577
  0.4421225815024102  0.3332802562836384  0.5628706873059350
  0.6730352855899527  0.3332896987190656  0.5636952697373319
  0.3264585590515091  0.3332736603543696  0.5625811717378436
  0.5576120715637369  0.3332917538996633  0.5635170882156665
  0.4610069784409129  0.8333699787473603  0.4364977940449510
  0.6918626516010050  0.8333683178220191  0.4366193837325427
  0.3455051648707090  0.8333780618684477  0.4361599286208415
  0.5764439731540606  0.8333676951463006  0.4369663674739879
  0.4032748501250351  0.6667034724421432  0.4362500598011150
  0.6341624021539295  0.6667013051301822  0.4369687977629914
  0.2874913991692091  0.6669046791919074  0.4361378613090677
  0.5187268274704373  0.6667031003499886  0.4367458479348716
  0.4610069167295354  0.1667051274932299  0.4364933233120141
  0.6918625929234374  0.1667016780164756  0.4366195034713427
  0.3454933377614086  0.1666974911591899  0.4361128448061345
  0.5764439463477501  0.1667009408351332  0.4369659502786568
  0.4032749226405675  0.0000425369803052  0.4362497256037649
  0.6341624019100605  0.0000339837156425  0.4369687615475255
  0.2874911604963027  0.9998501268743912  0.4361363466513492
  0.5187268282880635  0.0000352907991963  0.4367457753295108
  0.4610068789119584  0.5000349887648208  0.4364934723942759
  0.6918625945366911  0.5000349656078840  0.4366195322089916
  0.3454933315348474  0.5000548763894890  0.4361137113118800
  0.5764439525562979  0.5000344544571130  0.4369659953857982
  0.4032718176851586  0.3333728420579066  0.4362389677824096
  0.6341623223366042  0.3333676374571116  0.4369686813485570
  0.2874674062101312  0.3333778827657679  0.4359995065519613
  0.5187268113308935  0.3333692583156184  0.4367446282985972
  0.4806254381317883  0.9999658617464355  0.5631236619300680
  0.7119166372477048  0.9999582983156362  0.5634051447019373
  0.3651259948698188  0.9999767781804979  0.5625624834775628
  0.5961160318131915  0.9999635848928859  0.5636660425928786
  0.4228778627019969  0.8332795247501150  0.5628111095696161
  0.6539029648452868  0.8332882325685713  0.5637538919770826
  0.3074398595319081  0.8332725325170659  0.5631508765079931
  0.5383699878518181  0.8332930145042051  0.5634476187944437
  0.4806242151720975  0.3332926091494740  0.5631177485767065
  0.7119169333666471  0.3332902248434952  0.5634051578985515
  0.3650751446993394  0.3332717450628205  0.5625320460492389
  0.5961155725653260  0.3332957256019765  0.5636657920711021
  0.4228700327853476  0.1666199067527729  0.5627711786142663
  0.6539025381111919  0.1666193654536468  0.5637535925066854
  0.3073273166541514  0.1664816521365614  0.5627409318306091
  0.5383700860596637  0.1666213455018490  0.5634447914495182
  0.4806253907191016  0.6666201362541305  0.5631232514870506
  0.7119166650988906  0.6666221576425237  0.5634051137986759
  0.3651262303043791  0.6665694361558503  0.5625621003507453
  0.5961159995660272  0.6666278306277050  0.5636660210541324
  0.4228701032329702  0.4999387106890514  0.5627704031248497
  0.6539025342386715  0.4999571402955887  0.5637537370248216
  0.3073277668523516  0.5000677644771726  0.5627383227431539
  0.5383700109914413  0.4999646526147518  0.5634447652638876
  0.2685571476557470  0.8332757023447579  0.5643573339360068
  0.2683836008401674  0.5006530291975329  0.5640233865188913
  0.2683834528227079  0.1659023573740913  0.5640276431303850
  0.7307412320888613  0.8333684420420827  0.4363034824668158
  0.7307412691347717  0.5000351827083280  0.4363038495278060
  0.7307412639844321  0.1667016957178378  0.4363038340879198
  0.2501694679672505  0.6669683735734531  0.5649952965128741
  0.2500006484371039  0.3332788940310775  0.5651511654589600
  0.2501698267626089  0.9995865520072994  0.5649993315486573
  0.7492044527193664  0.0000351060206457  0.4361582000758159
  0.7492044254256461  0.3333684860441811  0.4361589436450813
  0.7492044553366607  0.6667018940924117  0.4361582027139598
  0.2395631693094732  0.8333771421138414  0.4367017793352457
  0.2395694082556725  0.5009826407125636  0.4351944288020433
  0.2395690583508634  0.1657790832318602  0.4351849087391482
  0.7598344442185730  0.8332942540658208  0.5624447587414663
  0.7598348327696370  0.4999619619459851  0.5624444202633292
  0.7598347998285385  0.1666258603720707  0.5624443635920638
  0.2206421558761435  0.6679452186794738  0.5663308200491205
  0.2210061516355822  0.3332851359658315  0.5736761273300538
  0.2206423754481535  0.9986019370712825  0.5663380516978097
  0.7786811983282259  0.0000377035999093  0.4359223003238486
  0.7786811668337995  0.3333710152427786  0.4359231109762456
  0.7786812011475538  0.6667045175473112  0.4359222645967550
  0.1876761489620556  0.3329569178979967  0.5007853377943768

             NaN             NaN             NaN
             NaN             NaN             NaN
             NaN             NaN             NaN
             NaN             NaN             NaN
             NaN             NaN             NaN
             NaN             NaN             NaN
             NaN             NaN             NaN
             NaN             NaN             NaN
             NaN             NaN             NaN
             NaN             NaN             NaN
             NaN             NaN             NaN
             NaN             NaN             NaN
             NaN             NaN             NaN
             NaN             NaN             NaN
             NaN             NaN             NaN
             NaN             NaN             NaN
             NaN             NaN             NaN
             NaN             NaN             NaN
             NaN             NaN             NaN
             NaN             NaN             NaN
             NaN             NaN             NaN
             NaN             NaN             NaN
             NaN             NaN             NaN
             NaN             NaN             NaN
             NaN             NaN             NaN
             NaN             NaN             NaN
             NaN             NaN             NaN
             NaN             NaN             NaN
             NaN             NaN             NaN
             NaN             NaN             NaN
             NaN             NaN             NaN
             NaN             NaN             NaN
             NaN             NaN             NaN
             NaN             NaN             NaN
             NaN             NaN             NaN
             NaN             NaN             NaN
             NaN             NaN             NaN
             NaN             NaN             NaN
             NaN             NaN             NaN
             NaN             NaN             NaN
             NaN             NaN             NaN
             NaN             NaN             NaN
             NaN             NaN             NaN
             NaN             NaN             NaN
             NaN             NaN             NaN
             NaN             NaN             NaN
             NaN             NaN             NaN
             NaN             NaN             NaN
             NaN             NaN             NaN
             NaN             NaN             NaN
             NaN             NaN             NaN
             NaN             NaN             NaN
             NaN             NaN             NaN
             NaN             NaN             NaN
             NaN             NaN             NaN
             NaN             NaN             NaN
             NaN             NaN             NaN
             NaN             NaN             NaN
             NaN             NaN             NaN
             NaN             NaN             NaN
             NaN             NaN             NaN
             NaN             NaN             NaN
             NaN             NaN             NaN
             NaN             NaN             NaN
             NaN             NaN             NaN
             NaN             NaN             NaN
             NaN             NaN             NaN
             NaN             NaN             NaN
             NaN             NaN             NaN
             NaN             NaN             NaN
             NaN             NaN             NaN
             NaN             NaN             NaN
             NaN             NaN             NaN
             NaN             NaN             NaN
             NaN             NaN             NaN
             NaN             NaN             NaN
             NaN             NaN             NaN
             NaN             NaN             NaN
             NaN             NaN             NaN
             NaN             NaN             NaN
             NaN             NaN             NaN
             NaN             NaN             NaN
             NaN             NaN             NaN
             NaN             NaN             NaN
             NaN             NaN             NaN
             NaN             NaN             NaN
             NaN             NaN             NaN
             NaN             NaN             NaN
             NaN             NaN             NaN
             NaN             NaN             NaN
             NaN             NaN             NaN
             NaN             NaN             NaN
             NaN             NaN             NaN
             NaN             NaN             NaN
             NaN             NaN             NaN
             NaN             NaN             NaN
             NaN             NaN             NaN
             NaN             NaN             NaN
             NaN             NaN             NaN
             NaN             NaN             NaN
             NaN             NaN             NaN
             NaN             NaN             NaN
             NaN             NaN             NaN
             NaN             NaN             NaN
             NaN             NaN             NaN
             NaN             NaN             NaN
             NaN             NaN             NaN
             NaN             NaN             NaN
             NaN             NaN             NaN
             NaN             NaN             NaN
             NaN             NaN             NaN
             NaN             NaN             NaN
             NaN             NaN             NaN
             NaN             NaN             NaN
             NaN             NaN             NaN
             NaN             NaN             NaN
             NaN             NaN             NaN
             NaN             NaN             NaN
             NaN             NaN             NaN
             NaN             NaN             NaN
             NaN             NaN             NaN
