Regular k-point mesh
0              
Gamma          
1  8  1        
0  0  0        