C    Li                                 
   1.0000000000000000     
    14.8037481308000007    0.0000000000000000    0.0000000000000000
    -7.4018740654000004   12.8204219525000003    0.0000000000000000
     0.0000000000000000    0.0000000000000000   27.8030738831000015
   C    Li
   143     1
Direct
  0.0014331196362629  0.0030428901172773  0.4366404041237694
  0.0014000994672559  0.5030340751328765  0.4368115730446859
  0.5013991935992314  0.0030533888105255  0.4364383168187875
  0.5014482689269576  0.5030998222475402  0.4290522433326075
  0.0014043993063153  0.1696850992059626  0.4365624004253624
  0.0014269505461222  0.6697038984052713  0.4367345818328551
  0.5013878968382651  0.1696319294170475  0.4352066300521067
  0.5013672353550170  0.6700305911215787  0.4328779754540569
  0.0013860025476998  0.3363571189402448  0.4366933463223843
  0.0014450468365498  0.8363939923266144  0.4366664366487923
  0.5013652527185122  0.3360554978147397  0.4320255620757804
  0.5013734058137530  0.8364578308906557  0.4357560108677688
  0.1680675195825251  0.0030106036601824  0.4362805232231907
  0.1679836949410613  0.5030289973072023  0.4357223651989219
  0.6680721532284251  0.0030710671300942  0.4366483815028777
  0.6684270114402736  0.5031137276527423  0.4327105139393880
  0.1680140223656314  0.1696099878881192  0.4352966184932685
  0.1680395169015198  0.6696969740918127  0.4366037156231233
  0.6680613326366024  0.1696929252149710  0.4364923748916252
  0.6684570441741369  0.6700411530992770  0.4330001730623288
  0.1679969564947073  0.3363252905089118  0.4348739007194983
  0.1680698721791946  0.8363679550924098  0.4368073532965066
  0.6681083558101556  0.3363307911143792  0.4349041349450420
  0.6681308724085504  0.8364938363900729  0.4353548175226996
  0.3347381789278485  0.0030179436792301  0.4361894387513425
  0.3344789531809925  0.5031142078576434  0.4325673231974663
  0.8347801808731778  0.0030756790411340  0.4367456621158319
  0.8348248757003010  0.5030396328538622  0.4358708546552107
  0.3346777721493870  0.1695871068805600  0.4343621046854932
  0.3346450237897994  0.6697763847396457  0.4350989645055081
  0.8347353969063602  0.1697078637317354  0.4370628155486833
  0.8349084878263368  0.6697829289050815  0.4353359659990770
  0.3344705605550597  0.3360372508513257  0.4320213855753379
  0.3347189727236937  0.8363905705139857  0.4364291096473868
  0.8347338368698896  0.3363598519883007  0.4367150753216474
  0.8348588642309210  0.8364678197606030  0.4359772844422266
  0.9981155681809174 -0.0034296591331249  0.5647866657315189
 -0.0012979520234164  0.4972047703432779  0.5663472857557186
  0.4986833988995387 -0.0034264734468846  0.5647092378375540
 -0.0001684625611200  0.1648733909498136  0.5649990086939510
  0.9972332366041932  0.6627546599223334  0.5660131872179860
  0.4978193030401954  0.1617822714573628  0.5645140387631846
  0.5028654527339995  0.6663863159664067  0.5687284893984382
 -0.0000116693843774  0.3314498151095406  0.5660926512354003
  0.9971285662986696  0.8290023212066614  0.5652903487408315
  0.4959191827841725  0.3263823471381015  0.5614973460909992
  0.4999245185358517  0.8312568849369300  0.5657780344698253
  0.1639549708915388  0.9948327657360854  0.5644183436100128
  0.1690745913515693  0.4971441847009800  0.5668404082417784
  0.6662566381783068 -0.0007153731189634  0.5649634712077434
  0.6551125659195847  0.4967408982107552  0.5684148200035236
  0.1642351597817363  0.1618045729836845  0.5645639701497740
  0.1657355486676428  0.6627656310771974  0.5659489093681703
  0.6652985247661067  0.1648756960699667  0.5649599996176331
  0.6636752964880223  0.6663491326646585  0.5687523600391551
  0.1678262065432002  0.3311196769388827  0.5658864937239847
  0.1643828564659800  0.8285605022794785  0.5649366082215973
  0.6635533692956462  0.3311135254275557  0.5658424708228820
  0.6674469005965463  0.8346493955228821  0.5665200420744405
  0.3310647206748685  0.9947973062540506  0.5643595198296796
  0.3418519725111075  0.4967746134191234  0.5684077735049919
  0.8332553819443431 -0.0007453152849353  0.5649945933570192
  0.8282772401220174  0.4971303316418484  0.5668495808937736
  0.3302630093063230  0.1602636027317209  0.5631598212436179
  0.3342697490646572  0.6631434352506350  0.5669385524253018
  0.8328652280750192  0.1654737318538695  0.5651489196122066
  0.8290787567292851  0.6631119842470085  0.5670522427034184
  0.3307451459354167  0.3264290035580563  0.5615390743866140
  0.3320395471625771  0.8289927552837122  0.5651383268503613
  0.8317034272216542  0.3314505654451315  0.5660519777512102
  0.8315584880218319  0.8312569195683038  0.5658577324696865
  0.0569390214014758  0.1141228325406185  0.4362844123790877
  0.0569428508035109  0.6141203968722775  0.4367927977013335
  0.5569611746124544  0.1141365162121337  0.4361558619899640
  0.5572267987421509  0.6146559242072871  0.4312258828113041
  0.0569411132347651  0.2807984306474378  0.4362023937234988
  0.0569621749442706  0.7808120609446119  0.4367924057993136
  0.5569984726534964  0.2807127570717143  0.4340317968973984
  0.5570130738955554  0.7810253963630428  0.4347444911587616
  0.0569161086390621  0.4474561158348489  0.4365415574842741
  0.0569715992404997  0.9474923330863505  0.4366186703523989
  0.5572127179500016  0.4472968664769458  0.4307304296711910
  0.5569731789130264  0.9475403936738798  0.4364047703670700
  0.2235845387864713  0.1140968251946391  0.4353357842614755
  0.2235517990753357  0.6141339865702714  0.4358561108535388
  0.7236290554976040  0.1141717220154376  0.4368790388029324
  0.7239010739823957  0.6143049649076768  0.4334573398095389
  0.2234871781651165  0.2806879333200197  0.4340543585546992
  0.2236135120239804  0.7808112168915325  0.4366546760508149
  0.7236191495371452  0.2807956159060669  0.4362043083132252
  0.7237872669974824  0.7810268978797948  0.4348776976217184
  0.2234589416167611  0.4474364709863779  0.4344208930221540
  0.2236302596075843  0.9474684480428236  0.4364448192556118
  0.7237637046028819  0.4474484642530057  0.4345496824228064
  0.7236607128945169  0.9475481620049272  0.4364211439773433
  0.3902896760504481  0.1141134918206789  0.4352706779548625
  0.3901942061446949  0.6143059787636742  0.4332675220259737
  0.8903120370720470  0.1141719792012894  0.4369481560075437
  0.8903538547200941  0.6141432931567374  0.4360558115416157
  0.3901961793976421  0.2806008159130805  0.4323932830952972
  0.3902695280303137  0.7808617429461783  0.4358116015580138
  0.8902802711108133  0.2808006988922909  0.4369753291673605
  0.8903589915277964  0.7808718986202502  0.4360743478369905
  0.3898624593148491  0.4472852067106384  0.4306743118050487
  0.3903057536271085  0.9474978564046531  0.4364090536470399
  0.8903134748987741  0.4474533144198942  0.4366003335285392
  0.8903479647015859  0.9475445739547281  0.4365905964956305
  0.1088021260479865  0.0509481929242683  0.5646348413654176
  0.1112071233258675  0.5519844921781423  0.5663910863229242
  0.6099420673120630  0.0537614370402583  0.5647638707809017
  0.6011755834311363  0.5573848380224142  0.5702523484034263
  0.1107890858161810  0.2195165535342952  0.5649775648823007
  0.1089438413447145  0.7176816900838534  0.5655629278177318
  0.6090067844750061  0.2195250223997189  0.5649231512864697
  0.6130094210289732  0.7258304973419050  0.5684019794183452
  0.1116942506733337  0.3863385838569239  0.5665680621581797
  0.1083877842356070  0.8839165707080706  0.5648005179542033
  0.6066033871888452  0.3853980589712077  0.5654348332348577
  0.6109440731512473  0.8887822763424282  0.5656518598263405
  0.2749200073675027  0.0495985243047926  0.5640089211535645
  0.2823024712503245  0.5521749162148333  0.5676053972663179
  0.7774674897093407  0.0546807483316752  0.5649372967843598
  0.7700619052852674  0.5521281017550792  0.5676358914013827
  0.2790520568118477  0.3854118835990643  0.5654809862921125
  0.2757259413453617  0.8839002979884358  0.5647165519200884
  0.7748961205491867  0.3863390043293990  0.5665328156216360
  0.7780606007443381  0.8887662294914485  0.5656732175563092
  0.4423576067740297  0.0509315013174060  0.5645647263709629
  0.4564259591162951  0.5574578756614184  0.5702292656766299
  0.9440635568791834  0.0537382147341150  0.5648221772668882
  0.9409875166584315  0.5520021223819429  0.5664224569285872
  0.4410805491206398  0.2153390578259793  0.5633479223019094
  0.4450521331687889  0.7200759988665466  0.5669739658242106
  0.9441372524481753  0.2205256032619297  0.5654123256077932
  0.9410297300977080  0.7179343626461485  0.5660553883255821
  0.4372572840316493  0.3742567119004394  0.5542296711963790
  0.4433085195957079  0.8854982200938367  0.5650592607194380
  0.9433443588197581  0.3864527257489495  0.5662471961153692
  0.9424018220536499  0.8855239064995143  0.5651659531986636
  0.2745478341027836  0.2154012705427047  0.5633853367186001
  0.2770956728678057  0.7179250198898448  0.5659140128689615
  0.7766405836933320  0.2205239038173069  0.5653761834054167
  0.7752186942077594  0.7200542813094132  0.5670603197568347
  0.5006572985499517  0.5012982900873275  0.5056008928856009

  0.00000000E+00  0.00000000E+00  0.00000000E+00
  0.00000000E+00  0.00000000E+00  0.00000000E+00
  0.00000000E+00  0.00000000E+00  0.00000000E+00
  0.00000000E+00  0.00000000E+00  0.00000000E+00
  0.00000000E+00  0.00000000E+00  0.00000000E+00
  0.00000000E+00  0.00000000E+00  0.00000000E+00
  0.00000000E+00  0.00000000E+00  0.00000000E+00
  0.00000000E+00  0.00000000E+00  0.00000000E+00
  0.00000000E+00  0.00000000E+00  0.00000000E+00
  0.00000000E+00  0.00000000E+00  0.00000000E+00
  0.00000000E+00  0.00000000E+00  0.00000000E+00
  0.00000000E+00  0.00000000E+00  0.00000000E+00
  0.00000000E+00  0.00000000E+00  0.00000000E+00
  0.00000000E+00  0.00000000E+00  0.00000000E+00
  0.00000000E+00  0.00000000E+00  0.00000000E+00
  0.00000000E+00  0.00000000E+00  0.00000000E+00
  0.00000000E+00  0.00000000E+00  0.00000000E+00
  0.00000000E+00  0.00000000E+00  0.00000000E+00
  0.00000000E+00  0.00000000E+00  0.00000000E+00
  0.00000000E+00  0.00000000E+00  0.00000000E+00
  0.00000000E+00  0.00000000E+00  0.00000000E+00
  0.00000000E+00  0.00000000E+00  0.00000000E+00
  0.00000000E+00  0.00000000E+00  0.00000000E+00
  0.00000000E+00  0.00000000E+00  0.00000000E+00
  0.00000000E+00  0.00000000E+00  0.00000000E+00
  0.00000000E+00  0.00000000E+00  0.00000000E+00
  0.00000000E+00  0.00000000E+00  0.00000000E+00
  0.00000000E+00  0.00000000E+00  0.00000000E+00
  0.00000000E+00  0.00000000E+00  0.00000000E+00
  0.00000000E+00  0.00000000E+00  0.00000000E+00
  0.00000000E+00  0.00000000E+00  0.00000000E+00
  0.00000000E+00  0.00000000E+00  0.00000000E+00
  0.00000000E+00  0.00000000E+00  0.00000000E+00
  0.00000000E+00  0.00000000E+00  0.00000000E+00
  0.00000000E+00  0.00000000E+00  0.00000000E+00
  0.00000000E+00  0.00000000E+00  0.00000000E+00
  0.00000000E+00  0.00000000E+00  0.00000000E+00
  0.00000000E+00  0.00000000E+00  0.00000000E+00
  0.00000000E+00  0.00000000E+00  0.00000000E+00
  0.00000000E+00  0.00000000E+00  0.00000000E+00
  0.00000000E+00  0.00000000E+00  0.00000000E+00
  0.00000000E+00  0.00000000E+00  0.00000000E+00
  0.00000000E+00  0.00000000E+00  0.00000000E+00
  0.00000000E+00  0.00000000E+00  0.00000000E+00
  0.00000000E+00  0.00000000E+00  0.00000000E+00
  0.00000000E+00  0.00000000E+00  0.00000000E+00
  0.00000000E+00  0.00000000E+00  0.00000000E+00
  0.00000000E+00  0.00000000E+00  0.00000000E+00
  0.00000000E+00  0.00000000E+00  0.00000000E+00
  0.00000000E+00  0.00000000E+00  0.00000000E+00
  0.00000000E+00  0.00000000E+00  0.00000000E+00
  0.00000000E+00  0.00000000E+00  0.00000000E+00
  0.00000000E+00  0.00000000E+00  0.00000000E+00
  0.00000000E+00  0.00000000E+00  0.00000000E+00
  0.00000000E+00  0.00000000E+00  0.00000000E+00
  0.00000000E+00  0.00000000E+00  0.00000000E+00
  0.00000000E+00  0.00000000E+00  0.00000000E+00
  0.00000000E+00  0.00000000E+00  0.00000000E+00
  0.00000000E+00  0.00000000E+00  0.00000000E+00
  0.00000000E+00  0.00000000E+00  0.00000000E+00
  0.00000000E+00  0.00000000E+00  0.00000000E+00
  0.00000000E+00  0.00000000E+00  0.00000000E+00
  0.00000000E+00  0.00000000E+00  0.00000000E+00
  0.00000000E+00  0.00000000E+00  0.00000000E+00
  0.00000000E+00  0.00000000E+00  0.00000000E+00
  0.00000000E+00  0.00000000E+00  0.00000000E+00
  0.00000000E+00  0.00000000E+00  0.00000000E+00
  0.00000000E+00  0.00000000E+00  0.00000000E+00
  0.00000000E+00  0.00000000E+00  0.00000000E+00
  0.00000000E+00  0.00000000E+00  0.00000000E+00
  0.00000000E+00  0.00000000E+00  0.00000000E+00
  0.00000000E+00  0.00000000E+00  0.00000000E+00
  0.00000000E+00  0.00000000E+00  0.00000000E+00
  0.00000000E+00  0.00000000E+00  0.00000000E+00
  0.00000000E+00  0.00000000E+00  0.00000000E+00
  0.00000000E+00  0.00000000E+00  0.00000000E+00
  0.00000000E+00  0.00000000E+00  0.00000000E+00
  0.00000000E+00  0.00000000E+00  0.00000000E+00
  0.00000000E+00  0.00000000E+00  0.00000000E+00
  0.00000000E+00  0.00000000E+00  0.00000000E+00
  0.00000000E+00  0.00000000E+00  0.00000000E+00
  0.00000000E+00  0.00000000E+00  0.00000000E+00
  0.00000000E+00  0.00000000E+00  0.00000000E+00
  0.00000000E+00  0.00000000E+00  0.00000000E+00
  0.00000000E+00  0.00000000E+00  0.00000000E+00
  0.00000000E+00  0.00000000E+00  0.00000000E+00
  0.00000000E+00  0.00000000E+00  0.00000000E+00
  0.00000000E+00  0.00000000E+00  0.00000000E+00
  0.00000000E+00  0.00000000E+00  0.00000000E+00
  0.00000000E+00  0.00000000E+00  0.00000000E+00
  0.00000000E+00  0.00000000E+00  0.00000000E+00
  0.00000000E+00  0.00000000E+00  0.00000000E+00
  0.00000000E+00  0.00000000E+00  0.00000000E+00
  0.00000000E+00  0.00000000E+00  0.00000000E+00
  0.00000000E+00  0.00000000E+00  0.00000000E+00
  0.00000000E+00  0.00000000E+00  0.00000000E+00
  0.00000000E+00  0.00000000E+00  0.00000000E+00
  0.00000000E+00  0.00000000E+00  0.00000000E+00
  0.00000000E+00  0.00000000E+00  0.00000000E+00
  0.00000000E+00  0.00000000E+00  0.00000000E+00
  0.00000000E+00  0.00000000E+00  0.00000000E+00
  0.00000000E+00  0.00000000E+00  0.00000000E+00
  0.00000000E+00  0.00000000E+00  0.00000000E+00
  0.00000000E+00  0.00000000E+00  0.00000000E+00
  0.00000000E+00  0.00000000E+00  0.00000000E+00
  0.00000000E+00  0.00000000E+00  0.00000000E+00
  0.00000000E+00  0.00000000E+00  0.00000000E+00
  0.00000000E+00  0.00000000E+00  0.00000000E+00
  0.00000000E+00  0.00000000E+00  0.00000000E+00
  0.00000000E+00  0.00000000E+00  0.00000000E+00
  0.00000000E+00  0.00000000E+00  0.00000000E+00
  0.00000000E+00  0.00000000E+00  0.00000000E+00
  0.00000000E+00  0.00000000E+00  0.00000000E+00
  0.00000000E+00  0.00000000E+00  0.00000000E+00
  0.00000000E+00  0.00000000E+00  0.00000000E+00
  0.00000000E+00  0.00000000E+00  0.00000000E+00
  0.00000000E+00  0.00000000E+00  0.00000000E+00
  0.00000000E+00  0.00000000E+00  0.00000000E+00
  0.00000000E+00  0.00000000E+00  0.00000000E+00
  0.00000000E+00  0.00000000E+00  0.00000000E+00
  0.00000000E+00  0.00000000E+00  0.00000000E+00
  0.00000000E+00  0.00000000E+00  0.00000000E+00
  0.00000000E+00  0.00000000E+00  0.00000000E+00
  0.00000000E+00  0.00000000E+00  0.00000000E+00
  0.00000000E+00  0.00000000E+00  0.00000000E+00
  0.00000000E+00  0.00000000E+00  0.00000000E+00
  0.00000000E+00  0.00000000E+00  0.00000000E+00
  0.00000000E+00  0.00000000E+00  0.00000000E+00
  0.00000000E+00  0.00000000E+00  0.00000000E+00
  0.00000000E+00  0.00000000E+00  0.00000000E+00
  0.00000000E+00  0.00000000E+00  0.00000000E+00
  0.00000000E+00  0.00000000E+00  0.00000000E+00
  0.00000000E+00  0.00000000E+00  0.00000000E+00
  0.00000000E+00  0.00000000E+00  0.00000000E+00
  0.00000000E+00  0.00000000E+00  0.00000000E+00
  0.00000000E+00  0.00000000E+00  0.00000000E+00
  0.00000000E+00  0.00000000E+00  0.00000000E+00
  0.00000000E+00  0.00000000E+00  0.00000000E+00
  0.00000000E+00  0.00000000E+00  0.00000000E+00
  0.00000000E+00  0.00000000E+00  0.00000000E+00
  0.00000000E+00  0.00000000E+00  0.00000000E+00
  0.00000000E+00  0.00000000E+00  0.00000000E+00
  0.00000000E+00  0.00000000E+00  0.00000000E+00
  0.00000000E+00  0.00000000E+00  0.00000000E+00
