C    H    Li                            
   1.0000000000000000     
    37.0938796996999969    0.0000000000000000    0.0000000000000000
     0.0000000000000000    7.3546423911999996    0.0000000000000000
     0.0000000000000000    0.0000000000000000   27.8030738831000015
   C    H    Li
   108    12     1
Direct
  0.4993379481927370  0.8333892980735086  0.4369158542724310
  0.7300444258887199  0.8332628601108488  0.5630335363774435
  0.3839271274232574  0.8333730216394367  0.4361891552573353
  0.6148024509214455  0.8334110593119628  0.4370648529516887
  0.4416273451107902  0.6667294205055367  0.4367250367781570
  0.6725879536579670  0.6667472535099331  0.4368259829920313
  0.3262269674028542  0.6669725574790296  0.4345435755762403
  0.5570599944102524  0.6667512624696308  0.4370249926959748
  0.4993351149776597  0.1667281492988588  0.4368945806946269
  0.7300444081538077  0.1665951983640597  0.5630327960523754
  0.3839166607669877  0.1666557561652568  0.4358975862336252
  0.6148027347456710  0.1667447171127777  0.4370627526969151
  0.4416273498082346  0.0000257384599235  0.4367258085142119
  0.6725878961409265  0.0000764998118305  0.4368260107138517
  0.3262270964191188  0.9997590651654138  0.4345424428945577
  0.5570599745368838  0.0000764642467378  0.4370266745654712
  0.4993350324102573  0.5000523334442571  0.4368946406961117
  0.7300444765049241  0.4999307492359107  0.5630327683959953
  0.3839167859515776  0.5000918088985122  0.4358964702954449
  0.6148028229769993  0.5000753579768857  0.4370624911534388
  0.4416170744574236  0.3333782799559173  0.4366402101579528
  0.6725872939012052  0.3334115333994923  0.4368258558536666
  0.3263542484008802  0.3333662074866337  0.4332974551620178
  0.5570587400258078  0.3334142224943703  0.4370178978665732
  0.2690199648996245  0.8333639931582792  0.4326329379713582
  0.4995798988278076  0.8332643058309260  0.5629348125069037
  0.3841119997505344  0.8332651376323997  0.5628383880523606
  0.6150133519205647  0.8332588384853734  0.5636786835871942
  0.4418503070245673  0.6666025797828523  0.5625764892362028
  0.6727103005368131  0.6665998326192094  0.5636294592728111
  0.3263256393455099  0.6668053819669150  0.5647853147910925
  0.5572973271813401  0.6665930582895369  0.5633968473527632
  0.2689482311483902  0.1662148526978866  0.4308740366222871
  0.4995769942686141  0.1665947781380701  0.5629403927677514
  0.3840923324131749  0.1665774221494077  0.5629627046907052
  0.6150124299210111  0.1665906900637091  0.5636787574492398
  0.4418502891709668  0.9999286007152011  0.5625762996564460
  0.6727102173133517  0.9999324658926647  0.5636294960347689
  0.3263264034576132  0.9997101370099983  0.5647827878036072
  0.5572973276621127  0.9999237356910622  0.5633968594002016
  0.2689479069534554  0.5005131528138380  0.4308791196518756
  0.4995770035690124  0.4999334405770992  0.5629404493498659
  0.3840923118375666  0.4999561900446873  0.5629631664571240
  0.6150124764792571  0.4999264038334968  0.5636787095680983
  0.4418444174245629  0.3332653930485925  0.5626057431340522
  0.6727098936564816  0.3332659608953371  0.5636295604324566
  0.3262957440573587  0.3332596415501549  0.5653359718334610
  0.5572963921047227  0.3332584330464372  0.5633977180230859
  0.4608657862262340  0.8333790058767730  0.4368124255705108
  0.6917235875970981  0.8334084336724217  0.4366687383885322
  0.3453681297451197  0.8333665922629194  0.4353958970062667
  0.5762993678191167  0.8334150115657586  0.4370399823910561
  0.4031331624918395  0.6667465452055925  0.4363753098040480
  0.6340188912481177  0.6667442761467306  0.4370134894763185
  0.2873727794353125  0.6676888913653046  0.4329250508016478
  0.5185800977991456  0.6667269196609523  0.4369350805773020
  0.4608577023805499  0.1667164830166728  0.4367581533364837
  0.6917232492208606  0.1667423796345411  0.4366690075013707
  0.3453507038547622  0.1665234513472617  0.4346351942476802
  0.5762985801731652  0.1667487439540520  0.4370345348466944
  0.4031332156704033  0.0000034324784732  0.4363774160206103
  0.6340188205819945  0.0000743898554270  0.4370136369249923
  0.2873730494266583  0.9990405059234343  0.4329222345672390
  0.5185800065047137  0.0000586070794457  0.4369355342470934
  0.4608576970511648  0.5000426970027124  0.4367580431785154
  0.6917232472145990  0.5000750366379374  0.4366689895762175
  0.3453506706259886  0.5002105064243727  0.4346358669998348
  0.5762987026994398  0.5000818385866518  0.4370337084388077
  0.4031085038797295  0.3333740429365870  0.4361617035088011
  0.6340186386514246  0.3334102232861501  0.4370121924180528
  0.2874449395430554  0.3333649949327812  0.4300794441416800
  0.5185773188172557  0.3333946388028955  0.4369191075133991
  0.4803370093879396  0.9999330908908357  0.5627952232479821
  0.7115908135900517  0.9999316654255292  0.5633306643212269
  0.3648891684213446  0.9998909997876945  0.5632978541345799
  0.5957979534258776  0.9999227597541648  0.5636289957126024
  0.4226155657490228  0.8332632087182376  0.5625561612238890
  0.6535775509010429  0.8332651963863934  0.5636990114489464
  0.3072049643884819  0.8332584990905143  0.5657141605908117
  0.5380635683299339  0.8332573818862006  0.5632649576935381
  0.4803342722235370  0.3332655479973805  0.5628059202613143
  0.7115913152986518  0.3332640818863334  0.5633307662432231
  0.3648797729488524  0.3332652082298646  0.5635071408856012
  0.5957979765623173  0.3332557280242539  0.5636294673777033
  0.4226048155183523  0.1665811259021086  0.5625941228107731
  0.6535768990388090  0.1665945405761744  0.5636991876776176
  0.3071985281304521  0.1662244569311057  0.5663693621428342
  0.5380622190749266  0.1665856646874094  0.5632659563958304
  0.4803371571190157  0.6665983202737992  0.5627953208219302
  0.7115907729003802  0.6665969101507371  0.5633306397794497
  0.3648887583525869  0.6666373626781212  0.5632988171841158
  0.5957979361486652  0.6665883376663680  0.5636289587557328
  0.4226050847284474  0.4999434878240875  0.5625943338456373
  0.6535768482564569  0.4999345556711458  0.5636988005187649
  0.3071967117897119  0.5002846896197469  0.5663717089894837
  0.5380622176018149  0.4999287203531421  0.5632659591266990
  0.2683570161576960  0.8332548418810559  0.5681038795360801
  0.2682440463431870  0.5009248741053310  0.5696033938105944
  0.2682457818438154  0.1655821180009374  0.5696018071184629
  0.7306023106362733  0.8334079149948328  0.4363297146714168
  0.7306032350808949  0.5000738369861386  0.4363314424012800
  0.7306032284683696  0.1667416536049414  0.4363314665637114
  0.2499044936425917  0.6672569866238762  0.5697606343911429
  0.2497209332030823  0.3332491025065518  0.5718134666500797
  0.2499066437742753  0.9992494453346427  0.5697602930518373
  0.7490680145504074  0.0000710149263354  0.4361667449734515
  0.7490683853806099  0.3334095132863334  0.4361702709693476
  0.7490678070249379  0.6667440485519127  0.4361668534463292
  0.2395516245518295  0.8333641714411746  0.4316769222495450
  0.2395669477202619  0.5018709936799548  0.4261674163509815
  0.2395675468204910  0.1648559669682000  0.4261582224882616
  0.7595071008362634  0.8332626878975611  0.5623706979843455
  0.7595070908251871  0.4999304649360177  0.5623679893589885
  0.7595071074500418  0.1665947260236435  0.5623680290694032
  0.2204763420392827  0.6677549284015371  0.5720020199035440
  0.2204444465345843  0.3332480536197528  0.5767139224004539
  0.2204781263162499  0.9987624948948216  0.5720020070804532
  0.7785428119127179  0.0000632871113983  0.4358918780404016
  0.7785433506166429  0.3333992964456341  0.4358962176453687
  0.7785428030491595  0.6667355995670472  0.4358917662400319
  0.2580697824990957  0.3333298513710093  0.4959910942767044

             NaN             NaN             NaN
             NaN             NaN             NaN
             NaN             NaN             NaN
             NaN             NaN             NaN
             NaN             NaN             NaN
             NaN             NaN             NaN
             NaN             NaN             NaN
             NaN             NaN             NaN
             NaN             NaN             NaN
             NaN             NaN             NaN
             NaN             NaN             NaN
             NaN             NaN             NaN
             NaN             NaN             NaN
             NaN             NaN             NaN
             NaN             NaN             NaN
             NaN             NaN             NaN
             NaN             NaN             NaN
             NaN             NaN             NaN
             NaN             NaN             NaN
             NaN             NaN             NaN
             NaN             NaN             NaN
             NaN             NaN             NaN
             NaN             NaN             NaN
             NaN             NaN             NaN
             NaN             NaN             NaN
             NaN             NaN             NaN
             NaN             NaN             NaN
             NaN             NaN             NaN
             NaN             NaN             NaN
             NaN             NaN             NaN
             NaN             NaN             NaN
             NaN             NaN             NaN
             NaN             NaN             NaN
             NaN             NaN             NaN
             NaN             NaN             NaN
             NaN             NaN             NaN
             NaN             NaN             NaN
             NaN             NaN             NaN
             NaN             NaN             NaN
             NaN             NaN             NaN
             NaN             NaN             NaN
             NaN             NaN             NaN
             NaN             NaN             NaN
             NaN             NaN             NaN
             NaN             NaN             NaN
             NaN             NaN             NaN
             NaN             NaN             NaN
             NaN             NaN             NaN
             NaN             NaN             NaN
             NaN             NaN             NaN
             NaN             NaN             NaN
             NaN             NaN             NaN
             NaN             NaN             NaN
             NaN             NaN             NaN
             NaN             NaN             NaN
             NaN             NaN             NaN
             NaN             NaN             NaN
             NaN             NaN             NaN
             NaN             NaN             NaN
             NaN             NaN             NaN
             NaN             NaN             NaN
             NaN             NaN             NaN
             NaN             NaN             NaN
             NaN             NaN             NaN
             NaN             NaN             NaN
             NaN             NaN             NaN
             NaN             NaN             NaN
             NaN             NaN             NaN
             NaN             NaN             NaN
             NaN             NaN             NaN
             NaN             NaN             NaN
             NaN             NaN             NaN
             NaN             NaN             NaN
             NaN             NaN             NaN
             NaN             NaN             NaN
             NaN             NaN             NaN
             NaN             NaN             NaN
             NaN             NaN             NaN
             NaN             NaN             NaN
             NaN             NaN             NaN
             NaN             NaN             NaN
             NaN             NaN             NaN
             NaN             NaN             NaN
             NaN             NaN             NaN
             NaN             NaN             NaN
             NaN             NaN             NaN
             NaN             NaN             NaN
             NaN             NaN             NaN
             NaN             NaN             NaN
             NaN             NaN             NaN
             NaN             NaN             NaN
             NaN             NaN             NaN
             NaN             NaN             NaN
             NaN             NaN             NaN
             NaN             NaN             NaN
             NaN             NaN             NaN
             NaN             NaN             NaN
             NaN             NaN             NaN
             NaN             NaN             NaN
             NaN             NaN             NaN
             NaN             NaN             NaN
             NaN             NaN             NaN
             NaN             NaN             NaN
             NaN             NaN             NaN
             NaN             NaN             NaN
             NaN             NaN             NaN
             NaN             NaN             NaN
             NaN             NaN             NaN
             NaN             NaN             NaN
             NaN             NaN             NaN
             NaN             NaN             NaN
             NaN             NaN             NaN
             NaN             NaN             NaN
             NaN             NaN             NaN
             NaN             NaN             NaN
             NaN             NaN             NaN
             NaN             NaN             NaN
             NaN             NaN             NaN
             NaN             NaN             NaN
             NaN             NaN             NaN
             NaN             NaN             NaN
