C    H    Li                            
   1.0000000000000000     
    37.2234382628999967    0.0000000000000000    0.0000000000000000
     0.0000000000000000    8.5469398498999993    0.0000000000000000
     0.0000000000000000    0.0000000000000000   27.8030738831000015
   C    H    Li
   104    16     1
Direct
  0.4667542255708425  0.0037793079769069  0.4360806671592390
  0.4667554715889832  0.5037766396321595  0.4361075215392518
  0.4336703287616860  0.2537412155629062  0.4361622496707535
  0.4336662706669172  0.7537337945458213  0.4360809743912623
  0.3341610353501266  0.0034013954285148  0.4360538853679001
  0.3341698815254856  0.5035242822671522  0.4359200192737916
  0.3017710035838523  0.2572787734791277  0.4354508201510859
  0.3017326078265645  0.7572818397422222  0.4364769886020818
  0.4005388221472791  0.0042585692337546  0.4360983984815691
  0.4005401458983006  0.5042544590267467  0.4361591167565896
  0.3672570374212700  0.2538297721713693  0.4360778786061498
  0.3672549722508702  0.7538391132821588  0.4360469864127421
  0.4667635639761442  0.9962266271988031  0.5639065415108643
  0.4667646863459790  0.4962253462042977  0.5639214454987498
  0.4336819412745316  0.2462656167607793  0.5638710257042936
  0.4336763045862407  0.7462702966431892  0.5639082133876815
  0.3341686105739702  0.9965204847503651  0.5639669030074103
  0.3341747679535839  0.4965677487232465  0.5640817411029235
  0.3018055294525256  0.2426466997820337  0.5645700607917988
  0.3017424992414285  0.7427350959874505  0.5636343658591042
  0.4005468083879592  0.9957498862517437  0.5638615018794813
  0.4005498624884664  0.4957469802317228  0.5639153569663742
  0.3672736331290185  0.2461695990286020  0.5639724171374949
  0.3672628155583822  0.7461675950883125  0.5639303495484752
  0.4667539648480081  0.1705864218711612  0.4361004818982094
  0.4667518132237671  0.6705831040245889  0.4360738736302704
  0.4336675468346600  0.4207031574041046  0.4361533753830436
  0.4336646132022163  0.9207069723076168  0.4360734843372795
  0.3341816746503797  0.1711544616331487  0.4358945315957903
  0.3341671091834190  0.6712753780974643  0.4360578689209593
  0.3017469928698733  0.4174263136448459  0.4354313805564793
  0.3017208482722033  0.9174205662353997  0.4364250240953775
  0.4005399650756672  0.1703127906529487  0.4361454121891106
  0.4005366447266241  0.6703053652977059  0.4360794070728171
  0.3672490066756722  0.4207987424622821  0.4360794966954005
  0.3672503142233967  0.9207824824273456  0.4360455193624073
  0.3017310638529629  0.0825201592769376  0.5642898746112934
  0.3017433734757846  0.5826079752359948  0.5638454297654817
  0.4667647877513431  0.3294188614297854  0.5639159146282768
  0.4667610114658975  0.8294213498490762  0.5639262517883527
  0.3672555341150869  0.0792059192521738  0.5639325004726826
  0.3672607027007284  0.5792231449543525  0.5639785625076437
  0.3342028536072946  0.3288354372225665  0.5642252589435678
  0.3341753806507453  0.8287417458403949  0.5638855012035173
  0.4336750363767550  0.0792989149803957  0.5638783634056072
  0.4336762219648396  0.5793001937143581  0.5639211077365118
  0.4005540894471022  0.3296995299779053  0.5638944117259769
  0.4005455027424626  0.8296973497028148  0.5639038848361216
  0.5331148856978271  0.9962020601993208  0.5639735577799214
  0.5331149687712439  0.4962030780815577  0.5639756129788088
  0.5661993528291160  0.7462336547198802  0.5639970192605085
  0.5661995442472898  0.2462338864015268  0.5639962760902987
  0.6656877891357340  0.9964882135419030  0.5639030730558704
  0.6656881627925481  0.4964887348054672  0.5639016407796208
  0.6981097494223280  0.7426430993642068  0.5636527453215326
  0.6981104114480441  0.2426418879919532  0.5636578243976323
  0.4999397991867552  0.7459874924770131  0.5639353716234830
  0.4999419722144320  0.2459845130705585  0.5639261443875060
  0.5993249700506226  0.9956924665033366  0.5640043179153998
  0.5993251971103083  0.4956919839294287  0.5640043562946807
  0.6326067659948226  0.7461034595299575  0.5640050505391809
  0.6326077011462568  0.2461038233038580  0.5640054416588313
  0.5331047536795493  0.0037997003803145  0.4360243056828690
  0.5331050041133759  0.5038007279914801  0.4360286013165592
  0.5661905244433352  0.7537669060269541  0.4360032647777237
  0.5661903345744105  0.2537667318525723  0.4360056971352348
  0.6656796256433585  0.0035054169106048  0.4361058407307775
  0.6656802047603537  0.5035062683901752  0.4361058504473199
  0.6981014597140031  0.7573515110399056  0.4363494445181134
  0.6981019597549361  0.2573517473559315  0.4363517352629518
  0.4999304241921497  0.7540155552725549  0.4360624378388239
  0.4999318794254121  0.2540173979113914  0.4360848249336473
  0.5993161878734198  0.0043070544713029  0.4359977805717000
  0.5993164740466345  0.5043061132217777  0.4359980506769460
  0.6325981983577752  0.7538922220875145  0.4360019418791772
  0.6325990038897044  0.2538924470728008  0.4360020953473480
  0.5331176150451753  0.8294056375293275  0.5639802118759684
  0.5331182450146449  0.3294055805837562  0.5639790900668509
  0.5662000590176034  0.5792571639999060  0.5640079277208673
  0.5661999309148351  0.0792572326907821  0.5640070518113455
  0.6656815414397204  0.8286886727787224  0.5639126876797128
  0.6656824951128364  0.3286889970044748  0.5639135538711714
  0.6981232736239203  0.5825056373350007  0.5636905678326413
  0.6981231542309621  0.0825043643380722  0.5636960085733692
  0.4999401289961208  0.5796802090380644  0.5639510744106021
  0.4999399395797379  0.0796779979601022  0.5639412106673188
  0.5993268515048671  0.8296490667110727  0.5640227219559064
  0.5993274465595313  0.3296488362362407  0.5640226298216666
  0.6326109967154122  0.5791589529916478  0.5640034865861334
  0.6326109080769009  0.0791593058076594  0.5640040759189602
  0.6981148546404925  0.9174900401931643  0.4363114723394526
  0.6981153084619215  0.4174896720442223  0.4363131775351082
  0.4999297686616171  0.9203239541813354  0.4360462885038427
  0.4999312628845110  0.4203244062359052  0.4360678104792765
  0.5331079793762180  0.6705971848652756  0.4360196358516462
  0.5331083110148920  0.1705960513832478  0.4360240495584727
  0.6326020256355115  0.9208374699922356  0.4360021345919971
  0.6326027722961217  0.4208373286597609  0.4360022015640590
  0.6656728473779331  0.6713050235436072  0.4360953798883953
  0.6656734351520148  0.1713041454696601  0.4360960204935593
  0.5661908540534915  0.9207446105797688  0.4359920135660130
  0.5661906851116577  0.4207445235896333  0.4359945749696150
  0.5993179678600535  0.6703503342606911  0.4359803294394816
  0.5993182952465868  0.1703510699256949  0.4359804455213848
  0.7238391783762050  0.9780020002742313  0.4366028058497917
  0.7238398002744381  0.4780012064813353  0.4366064173966182
  0.7238208981774035  0.8032380542502393  0.5632891586804405
  0.7238219216647402  0.3032345595568279  0.5632989366622901
  0.7238128432918122  0.6967588613370099  0.4367075569441288
  0.7238134735521594  0.1967593661829874  0.4367124313318969
  0.7238472519713576  0.0219915325713646  0.5634047396936549
  0.7238475278473460  0.5219943445936577  0.5633941098322607
  0.2759764716961508  0.0221156015505908  0.5643975864947116
  0.2759598734277892  0.5222428827368744  0.5636417397261643
  0.2760370657965255  0.1964072617412174  0.4348780052367150
  0.2760077681895504  0.6967326618379951  0.4370719540091116
  0.2760550134204217  0.3034262475339419  0.5652994709399877
  0.2760203127866477  0.8032722424035029  0.5631595614897318
  0.2759802170785318  0.9778785902534275  0.4369307289309557
  0.2759973532879327  0.4781548995220851  0.4348577480218931
  0.2111209693876835  0.3308149741087464  0.4992098307965745

             NaN             NaN             NaN
             NaN             NaN             NaN
             NaN             NaN             NaN
             NaN             NaN             NaN
             NaN             NaN             NaN
             NaN             NaN             NaN
             NaN             NaN             NaN
             NaN             NaN             NaN
             NaN             NaN             NaN
             NaN             NaN             NaN
             NaN             NaN             NaN
             NaN             NaN             NaN
             NaN             NaN             NaN
             NaN             NaN             NaN
             NaN             NaN             NaN
             NaN             NaN             NaN
             NaN             NaN             NaN
             NaN             NaN             NaN
             NaN             NaN             NaN
             NaN             NaN             NaN
             NaN             NaN             NaN
             NaN             NaN             NaN
             NaN             NaN             NaN
             NaN             NaN             NaN
             NaN             NaN             NaN
             NaN             NaN             NaN
             NaN             NaN             NaN
             NaN             NaN             NaN
             NaN             NaN             NaN
             NaN             NaN             NaN
             NaN             NaN             NaN
             NaN             NaN             NaN
             NaN             NaN             NaN
             NaN             NaN             NaN
             NaN             NaN             NaN
             NaN             NaN             NaN
             NaN             NaN             NaN
             NaN             NaN             NaN
             NaN             NaN             NaN
             NaN             NaN             NaN
             NaN             NaN             NaN
             NaN             NaN             NaN
             NaN             NaN             NaN
             NaN             NaN             NaN
             NaN             NaN             NaN
             NaN             NaN             NaN
             NaN             NaN             NaN
             NaN             NaN             NaN
             NaN             NaN             NaN
             NaN             NaN             NaN
             NaN             NaN             NaN
             NaN             NaN             NaN
             NaN             NaN             NaN
             NaN             NaN             NaN
             NaN             NaN             NaN
             NaN             NaN             NaN
             NaN             NaN             NaN
             NaN             NaN             NaN
             NaN             NaN             NaN
             NaN             NaN             NaN
             NaN             NaN             NaN
             NaN             NaN             NaN
             NaN             NaN             NaN
             NaN             NaN             NaN
             NaN             NaN             NaN
             NaN             NaN             NaN
             NaN             NaN             NaN
             NaN             NaN             NaN
             NaN             NaN             NaN
             NaN             NaN             NaN
             NaN             NaN             NaN
             NaN             NaN             NaN
             NaN             NaN             NaN
             NaN             NaN             NaN
             NaN             NaN             NaN
             NaN             NaN             NaN
             NaN             NaN             NaN
             NaN             NaN             NaN
             NaN             NaN             NaN
             NaN             NaN             NaN
             NaN             NaN             NaN
             NaN             NaN             NaN
             NaN             NaN             NaN
             NaN             NaN             NaN
             NaN             NaN             NaN
             NaN             NaN             NaN
             NaN             NaN             NaN
             NaN             NaN             NaN
             NaN             NaN             NaN
             NaN             NaN             NaN
             NaN             NaN             NaN
             NaN             NaN             NaN
             NaN             NaN             NaN
             NaN             NaN             NaN
             NaN             NaN             NaN
             NaN             NaN             NaN
             NaN             NaN             NaN
             NaN             NaN             NaN
             NaN             NaN             NaN
             NaN             NaN             NaN
             NaN             NaN             NaN
             NaN             NaN             NaN
             NaN             NaN             NaN
             NaN             NaN             NaN
             NaN             NaN             NaN
             NaN             NaN             NaN
             NaN             NaN             NaN
             NaN             NaN             NaN
             NaN             NaN             NaN
             NaN             NaN             NaN
             NaN             NaN             NaN
             NaN             NaN             NaN
             NaN             NaN             NaN
             NaN             NaN             NaN
             NaN             NaN             NaN
             NaN             NaN             NaN
             NaN             NaN             NaN
             NaN             NaN             NaN
             NaN             NaN             NaN
             NaN             NaN             NaN
             NaN             NaN             NaN
