C    Li                                 
   1.0000000000000000     
    14.8037481308000007    0.0000000000000000    0.0000000000000000
    -7.4018740654000004   12.8204219525000003    0.0000000000000000
     0.0000000000000000    0.0000000000000000   27.8030738831000015
   C    Li
   143     1
Direct
  0.9999552147336609  0.0000728655268394  0.4355432741079114
  0.9999635659837196  0.5000615464137742  0.4354412234905152
  0.4999629330461640  0.0000664600445237  0.4354189729035961
  0.4999648269549101  0.5000680680686526  0.4363798187800850
  0.9999502746458850  0.1667346993771342  0.4358183743674734
  0.9999596016161797  0.6667242635067914  0.4352560730444002
  0.4999591250499530  0.1667297114914366  0.4363880284016479
  0.4999802154085891  0.6667208875138904  0.4353128428564061
  0.9999606682660196  0.3333962794241508  0.4357179647435181
  0.9999577192844842  0.8333966383252359  0.4352672593635425
  0.4999667101605000  0.3334071245412711  0.4369499346876016
  0.4999739047620898  0.8333977549972023  0.4349556991815385
  0.1666216158175540  0.0000668976970206  0.4359128236312977
  0.1666343048096076  0.5000508965599172  0.4356144059235612
  0.6666339111791000  0.0000738046778523  0.4350906745634946
  0.6666070929010272  0.5000506250260870  0.4361324088734871
  0.1666199459610699  0.1667309537771542  0.4364399378083940
  0.1666362736846562  0.6667216498873579  0.4352032771812138
  0.6666273150035711  0.1667288773986285  0.4357396036135409
  0.6666071001406526  0.6667210027574721  0.4353856915932741
  0.1666252806979275  0.3333904646150493  0.4362833494612611
  0.1666321916679255  0.8333972060461164  0.4353258789487522
  0.6666263665534263  0.3333892731289292  0.4362862845121788
  0.6666363335915177  0.8334100192139200  0.4348868256690898
  0.3332930838302957  0.0000645110680750  0.4358632833389453
  0.3333084698045796  0.5000480225639541  0.4360646302701571
  0.8332969987105541  0.0000729021091852  0.4351682278310119
  0.8332849009028518  0.5000532157012303  0.4356768296177091
  0.3332913370542540  0.1667320350020244  0.4367642673328888
  0.3333093004659192  0.6667142353781945  0.4352380860954898
  0.8332946695319685  0.1667354942157789  0.4354447490746357
  0.8332753207257532  0.6667156708892675  0.4353379359868355
  0.3332999383418707  0.3334048989328693  0.4369346002954779
  0.3333023051316670  0.8333914168551708  0.4351822624328591
  0.8332937394453349  0.3333935047975343  0.4357245307736745
  0.8332875553697059  0.8333955364876566  0.4350847691589488
  0.9996530561512624  0.9996411762958137  0.5623335515266171
  0.0001663128049688  0.5001937939203914  0.5625048797693949
  0.5000984111126828  0.9996321419322565  0.5622008832131389
  0.0014552688469128  0.1680336146906997  0.5629567755475335
  0.9985025152758350  0.6655911149258203  0.5621253986937542
  0.4989945629765153  0.1647485906151030  0.5644125848015712
  0.5045502571970528  0.6695655190568841  0.5614396778981440
  0.0017051978246807  0.3346080933083853  0.5625626093972685
  0.9984517129954623  0.8318306766259909  0.5619266511113958
  0.4963260287312485  0.3286026332669112  0.5733017956145302
  0.5014842464353675  0.8344023383484273  0.5614243191154047
  0.1652692420660883  0.9975762814429617  0.5630542638766829
  0.1709046069879098  0.5000803699295390  0.5627922442455965
  0.6677795903263239  0.0025594152403375  0.5615991120483236
  0.6554940554788155  0.4995118975706473  0.5637136802941428
  0.1658648491184087  0.1647503852814856  0.5645000290776178
  0.1672345464695190  0.6655806484763002  0.5620490231758333
  0.6666700105055613  0.1680447217561484  0.5628188744973538
  0.6651476094205431  0.6695433629415511  0.5614431886163147
  0.1698230524456704  0.3340835375661323  0.5645789870153071
  0.1657358519530551  0.8313127269095881  0.5621105942711899
  0.6643933523996041  0.3340970613637380  0.5644697578605148
  0.6690699029751090  0.8380014039731987  0.5608012527217939
  0.3324438855297573  0.9975753403242654  0.5629965774006808
  0.3441519880214992  0.4995249612315331  0.5638011364168629
  0.8348734554076022  0.0025530301584204  0.5616693943153908
  0.8293199443325505  0.5000808352512824  0.5627736039395236
  0.3314000636376480  0.1626907563056937  0.5671177105751013
  0.3359087941831007  0.6659482181987337  0.5618608024469411
  0.8343989220215255  0.1687032109498398  0.5622046727933426
  0.8301898485464220  0.6659516174992375  0.5619217214106226
  0.3324268259525382  0.3286149765160986  0.5733902453030563
  0.3335238695351760  0.8318209141460506  0.5618308553729429
  0.8330322399876362  0.3346094519923374  0.5625228714019778
  0.8330623429898215  0.8344064329059742  0.5615347920152757
  0.0555088231831406  0.1111815498632503  0.4359359774457471
  0.0555178976230103  0.6111664938143019  0.4352694556201600
  0.5555112313193277  0.1111762801591920  0.4358444503764187
  0.5555107540248285  0.6111609875442491  0.4356474260784206
  0.0555179002165233  0.2778478675326674  0.4359607436590927
  0.0555178920244816  0.7778389140149878  0.4352374106400433
  0.5555164838729385  0.2778465191488868  0.4366470230511731
  0.5555257731986958  0.7778367019635940  0.4349391551767623
  0.0555174391935092  0.4445078160063197  0.4355736270204387
  0.0555088430463141  0.9445143663630160  0.4355307753188322
  0.5555039203614249  0.4445136763683771  0.4365969632985138
  0.5555204993581301  0.9445149705482980  0.4350634077951431
  0.2221788117834562  0.1111755937418071  0.4364286424008856
  0.2221917725133679  0.6111633387554318  0.4353148032760801
  0.7221855486484825  0.1111815894979656  0.4353603038911187
  0.7221606980318970  0.6111600818546649  0.4355968510272524
  0.2221844934843391  0.2778453586180885  0.4366567014644195
  0.2221865156882474  0.7778363326800349  0.4351911882601889
  0.7221802129212999  0.2778435369214584  0.4359371998341879
  0.7221707325788712  0.7778357433098655  0.4350209206948862
  0.2221937027840375  0.4444989969971982  0.4360198203776470
  0.2221786196884070  0.9445061429192658  0.4356864423962391
  0.7221703417461849  0.4445013002819737  0.4360690374530345
  0.7221840638260768  0.9445105140954935  0.4349530305843972
  0.3888428551778521  0.1111736622129848  0.4363900071537571
  0.3888596120723825  0.6111586027046044  0.4355025646678417
  0.8888457992177276  0.1111814272081871  0.4354177433942812
  0.8888420229131652  0.6111657092151020  0.4353919621750603
  0.3888482928702133  0.2778394918605170  0.4370553695242292
  0.3888556051313901  0.7778305602695660  0.4350480310532441
  0.8888474307057729  0.2778387945140851  0.4356039385161040
  0.8888404983879327  0.7778301950869601  0.4351663621330910
  0.3888672150010672  0.4445106043585204  0.4365476681278643
  0.3888500493155351  0.9445070697285056  0.4354329681349414
  0.8888477933007112  0.4445054598293718  0.4356086040656870
  0.8888472963326927  0.9445129440874029  0.4351930744319938
  0.1103402963887733  0.0538938847118726  0.5630674990594050
  0.1128072979560890  0.5548493669122680  0.5624394200978473
  0.6113828581002885  0.0569624322462425  0.5621980523440085
  0.6015623722416339  0.5605054654365969  0.5621706818875989
  0.1124765341644466  0.2225090664265384  0.5642606406340323
  0.1103019504425055  0.7204453280788208  0.5620333174349701
  0.6101411141295346  0.2225306965029767  0.5641339650336872
  0.6146581036609702  0.7291547446264242  0.5606619716971480
  0.1135924099863530  0.3893194613284767  0.5629855610024187
  0.1097266538383068  0.8866980366988806  0.5622377735062303
  0.6068456757433038  0.3880027594217473  0.5673638135590242
  0.6125080397703687  0.8920770347760784  0.5611546581614864
  0.2762525133304776  0.0523658060081683  0.5641663847860761
  0.2842389068656572  0.5549177910290968  0.5626401362763123
  0.7790290746080247  0.0579626576617266  0.5617777539746012
  0.7708222647761236  0.5549081329822785  0.5626309703233531
  0.2812924986751454  0.3880054616820905  0.5674957491695902
  0.2771276111314494  0.8866958607100109  0.5621887557814187
  0.7758654721859476  0.3893228910685724  0.5629312252803562
  0.7797003826942490  0.8920723837190285  0.5612381061137501
  0.4436779528548267  0.0538965953556124  0.5629609658545187
  0.4590747224769619  0.5605359211580178  0.5622567331443223
  0.9456690893549387  0.0569545229320470  0.5623237279685952
  0.9421943356106613  0.5548528029279274  0.5624532656702708
  0.4422483840111114  0.2182037278684980  0.5677213590378245
  0.4466717560402583  0.7231756131121054  0.5616666173120423
  0.9457662790032401  0.2237081901038756  0.5625628293900681
  0.9422533688660972  0.7207397921336102  0.5619000118786848
  0.4382289844101553  0.3762564725069150  0.5855931555429316
  0.4448120573714414  0.8885533787400256  0.5617814456917519
  0.9448351370334132  0.3895278608546102  0.5624742909240635
  0.9438881398454032  0.8885618771989642  0.5618982738896479
  0.2760820501390380  0.2182213823647378  0.5677748931359584
  0.2786357888263535  0.7207330902676856  0.5617910891648649
  0.7780429239367852  0.2237136971304706  0.5624767446930938
  0.7766492160401377  0.7231744035849514  0.5617216999371214
  0.5039549440730070  0.5070729907273371  0.6284708779798824

  0.00000000E+00  0.00000000E+00  0.00000000E+00
  0.00000000E+00  0.00000000E+00  0.00000000E+00
  0.00000000E+00  0.00000000E+00  0.00000000E+00
  0.00000000E+00  0.00000000E+00  0.00000000E+00
  0.00000000E+00  0.00000000E+00  0.00000000E+00
  0.00000000E+00  0.00000000E+00  0.00000000E+00
  0.00000000E+00  0.00000000E+00  0.00000000E+00
  0.00000000E+00  0.00000000E+00  0.00000000E+00
  0.00000000E+00  0.00000000E+00  0.00000000E+00
  0.00000000E+00  0.00000000E+00  0.00000000E+00
  0.00000000E+00  0.00000000E+00  0.00000000E+00
  0.00000000E+00  0.00000000E+00  0.00000000E+00
  0.00000000E+00  0.00000000E+00  0.00000000E+00
  0.00000000E+00  0.00000000E+00  0.00000000E+00
  0.00000000E+00  0.00000000E+00  0.00000000E+00
  0.00000000E+00  0.00000000E+00  0.00000000E+00
  0.00000000E+00  0.00000000E+00  0.00000000E+00
  0.00000000E+00  0.00000000E+00  0.00000000E+00
  0.00000000E+00  0.00000000E+00  0.00000000E+00
  0.00000000E+00  0.00000000E+00  0.00000000E+00
  0.00000000E+00  0.00000000E+00  0.00000000E+00
  0.00000000E+00  0.00000000E+00  0.00000000E+00
  0.00000000E+00  0.00000000E+00  0.00000000E+00
  0.00000000E+00  0.00000000E+00  0.00000000E+00
  0.00000000E+00  0.00000000E+00  0.00000000E+00
  0.00000000E+00  0.00000000E+00  0.00000000E+00
  0.00000000E+00  0.00000000E+00  0.00000000E+00
  0.00000000E+00  0.00000000E+00  0.00000000E+00
  0.00000000E+00  0.00000000E+00  0.00000000E+00
  0.00000000E+00  0.00000000E+00  0.00000000E+00
  0.00000000E+00  0.00000000E+00  0.00000000E+00
  0.00000000E+00  0.00000000E+00  0.00000000E+00
  0.00000000E+00  0.00000000E+00  0.00000000E+00
  0.00000000E+00  0.00000000E+00  0.00000000E+00
  0.00000000E+00  0.00000000E+00  0.00000000E+00
  0.00000000E+00  0.00000000E+00  0.00000000E+00
  0.00000000E+00  0.00000000E+00  0.00000000E+00
  0.00000000E+00  0.00000000E+00  0.00000000E+00
  0.00000000E+00  0.00000000E+00  0.00000000E+00
  0.00000000E+00  0.00000000E+00  0.00000000E+00
  0.00000000E+00  0.00000000E+00  0.00000000E+00
  0.00000000E+00  0.00000000E+00  0.00000000E+00
  0.00000000E+00  0.00000000E+00  0.00000000E+00
  0.00000000E+00  0.00000000E+00  0.00000000E+00
  0.00000000E+00  0.00000000E+00  0.00000000E+00
  0.00000000E+00  0.00000000E+00  0.00000000E+00
  0.00000000E+00  0.00000000E+00  0.00000000E+00
  0.00000000E+00  0.00000000E+00  0.00000000E+00
  0.00000000E+00  0.00000000E+00  0.00000000E+00
  0.00000000E+00  0.00000000E+00  0.00000000E+00
  0.00000000E+00  0.00000000E+00  0.00000000E+00
  0.00000000E+00  0.00000000E+00  0.00000000E+00
  0.00000000E+00  0.00000000E+00  0.00000000E+00
  0.00000000E+00  0.00000000E+00  0.00000000E+00
  0.00000000E+00  0.00000000E+00  0.00000000E+00
  0.00000000E+00  0.00000000E+00  0.00000000E+00
  0.00000000E+00  0.00000000E+00  0.00000000E+00
  0.00000000E+00  0.00000000E+00  0.00000000E+00
  0.00000000E+00  0.00000000E+00  0.00000000E+00
  0.00000000E+00  0.00000000E+00  0.00000000E+00
  0.00000000E+00  0.00000000E+00  0.00000000E+00
  0.00000000E+00  0.00000000E+00  0.00000000E+00
  0.00000000E+00  0.00000000E+00  0.00000000E+00
  0.00000000E+00  0.00000000E+00  0.00000000E+00
  0.00000000E+00  0.00000000E+00  0.00000000E+00
  0.00000000E+00  0.00000000E+00  0.00000000E+00
  0.00000000E+00  0.00000000E+00  0.00000000E+00
  0.00000000E+00  0.00000000E+00  0.00000000E+00
  0.00000000E+00  0.00000000E+00  0.00000000E+00
  0.00000000E+00  0.00000000E+00  0.00000000E+00
  0.00000000E+00  0.00000000E+00  0.00000000E+00
  0.00000000E+00  0.00000000E+00  0.00000000E+00
  0.00000000E+00  0.00000000E+00  0.00000000E+00
  0.00000000E+00  0.00000000E+00  0.00000000E+00
  0.00000000E+00  0.00000000E+00  0.00000000E+00
  0.00000000E+00  0.00000000E+00  0.00000000E+00
  0.00000000E+00  0.00000000E+00  0.00000000E+00
  0.00000000E+00  0.00000000E+00  0.00000000E+00
  0.00000000E+00  0.00000000E+00  0.00000000E+00
  0.00000000E+00  0.00000000E+00  0.00000000E+00
  0.00000000E+00  0.00000000E+00  0.00000000E+00
  0.00000000E+00  0.00000000E+00  0.00000000E+00
  0.00000000E+00  0.00000000E+00  0.00000000E+00
  0.00000000E+00  0.00000000E+00  0.00000000E+00
  0.00000000E+00  0.00000000E+00  0.00000000E+00
  0.00000000E+00  0.00000000E+00  0.00000000E+00
  0.00000000E+00  0.00000000E+00  0.00000000E+00
  0.00000000E+00  0.00000000E+00  0.00000000E+00
  0.00000000E+00  0.00000000E+00  0.00000000E+00
  0.00000000E+00  0.00000000E+00  0.00000000E+00
  0.00000000E+00  0.00000000E+00  0.00000000E+00
  0.00000000E+00  0.00000000E+00  0.00000000E+00
  0.00000000E+00  0.00000000E+00  0.00000000E+00
  0.00000000E+00  0.00000000E+00  0.00000000E+00
  0.00000000E+00  0.00000000E+00  0.00000000E+00
  0.00000000E+00  0.00000000E+00  0.00000000E+00
  0.00000000E+00  0.00000000E+00  0.00000000E+00
  0.00000000E+00  0.00000000E+00  0.00000000E+00
  0.00000000E+00  0.00000000E+00  0.00000000E+00
  0.00000000E+00  0.00000000E+00  0.00000000E+00
  0.00000000E+00  0.00000000E+00  0.00000000E+00
  0.00000000E+00  0.00000000E+00  0.00000000E+00
  0.00000000E+00  0.00000000E+00  0.00000000E+00
  0.00000000E+00  0.00000000E+00  0.00000000E+00
  0.00000000E+00  0.00000000E+00  0.00000000E+00
  0.00000000E+00  0.00000000E+00  0.00000000E+00
  0.00000000E+00  0.00000000E+00  0.00000000E+00
  0.00000000E+00  0.00000000E+00  0.00000000E+00
  0.00000000E+00  0.00000000E+00  0.00000000E+00
  0.00000000E+00  0.00000000E+00  0.00000000E+00
  0.00000000E+00  0.00000000E+00  0.00000000E+00
  0.00000000E+00  0.00000000E+00  0.00000000E+00
  0.00000000E+00  0.00000000E+00  0.00000000E+00
  0.00000000E+00  0.00000000E+00  0.00000000E+00
  0.00000000E+00  0.00000000E+00  0.00000000E+00
  0.00000000E+00  0.00000000E+00  0.00000000E+00
  0.00000000E+00  0.00000000E+00  0.00000000E+00
  0.00000000E+00  0.00000000E+00  0.00000000E+00
  0.00000000E+00  0.00000000E+00  0.00000000E+00
  0.00000000E+00  0.00000000E+00  0.00000000E+00
  0.00000000E+00  0.00000000E+00  0.00000000E+00
  0.00000000E+00  0.00000000E+00  0.00000000E+00
  0.00000000E+00  0.00000000E+00  0.00000000E+00
  0.00000000E+00  0.00000000E+00  0.00000000E+00
  0.00000000E+00  0.00000000E+00  0.00000000E+00
  0.00000000E+00  0.00000000E+00  0.00000000E+00
  0.00000000E+00  0.00000000E+00  0.00000000E+00
  0.00000000E+00  0.00000000E+00  0.00000000E+00
  0.00000000E+00  0.00000000E+00  0.00000000E+00
  0.00000000E+00  0.00000000E+00  0.00000000E+00
  0.00000000E+00  0.00000000E+00  0.00000000E+00
  0.00000000E+00  0.00000000E+00  0.00000000E+00
  0.00000000E+00  0.00000000E+00  0.00000000E+00
  0.00000000E+00  0.00000000E+00  0.00000000E+00
  0.00000000E+00  0.00000000E+00  0.00000000E+00
  0.00000000E+00  0.00000000E+00  0.00000000E+00
  0.00000000E+00  0.00000000E+00  0.00000000E+00
  0.00000000E+00  0.00000000E+00  0.00000000E+00
  0.00000000E+00  0.00000000E+00  0.00000000E+00
  0.00000000E+00  0.00000000E+00  0.00000000E+00
  0.00000000E+00  0.00000000E+00  0.00000000E+00
  0.00000000E+00  0.00000000E+00  0.00000000E+00
  0.00000000E+00  0.00000000E+00  0.00000000E+00
  0.00000000E+00  0.00000000E+00  0.00000000E+00
