C    Li                                 
   1.0000000000000000     
    14.8037481308000007    0.0000000000000000    0.0000000000000000
    -7.4018740654000004   12.8204219525000003    0.0000000000000000
     0.0000000000000000    0.0000000000000000   27.8030738831000015
   C    Li
   143     1
Direct
  0.9999385620008465  0.0000141765232179  0.4356703887926757
  0.9999390064839023  0.5000123192282703  0.4357845701139266
  0.4999429024423139  0.0000173934319599  0.4353630000233262
  0.4999435904077522  0.5000192580688128  0.4362222751981664
  0.9999367803582454  0.1666792329875056  0.4359946744549509
  0.9999289432402267  0.6666740500861120  0.4354866969206183
  0.4999407038291881  0.1666789910515854  0.4365740434764788
  0.4999584490136801  0.6666679717883695  0.4348385855707537
  0.9999414230135157  0.3333458351921392  0.4360212427677870
  0.9999341747970033  0.8333424505442723  0.4354104969575745
  0.4999458448577943  0.3333603650999831  0.4370959992508550
  0.4999507550051911  0.8333476198253319  0.4345381152679983
  0.1666061463904412  0.0000123992357636  0.4360341375508897
  0.1666117762305160  0.5000049361272343  0.4356239377439213
  0.6666133613498801  0.0000269281538261  0.4349855740515418
  0.6665841070367456  0.5000051678583203  0.4363130264900127
  0.1666064864202311  0.1666805107895534  0.4365425660197784
  0.1666078819237367  0.6666719361562357  0.4352116435763164
  0.6666084245316584  0.1666806341702974  0.4359808153458924
  0.6665821768706968  0.6666701542144311  0.4352176918456051
  0.1666069275184658  0.3333430378411124  0.4363228599466973
  0.1666074367704877  0.8333438043617319  0.4353864002681381
  0.6666042146795218  0.3333431267334477  0.4366485898182878
  0.6666170128537775  0.8333611527385700  0.4345491382163192
  0.3332715396663624  0.0000120476078494  0.4359041384164166
  0.3332883681312168  0.5000015682483037  0.4357949291615255
  0.8332782346245754  0.0000249999704586  0.4351632000580431
  0.8332621000482070  0.5000065061345380  0.4360896085847413
  0.3332771536629889  0.1666829380571814  0.4368789218476582
  0.3332851449019060  0.6666659992230827  0.4348834767591266
  0.8332751069427190  0.1666876667575430  0.4356973163370136
  0.8332472104076606  0.6666676626263632  0.4355183106527845
  0.3332831626732357  0.3333622525886037  0.4369148729954394
  0.3332785908375084  0.8333442767740999  0.4349864003572899
  0.8332740225827099  0.3333463431678717  0.4361521877150298
  0.8332642054752136  0.8333458034292786  0.4350529818288739
  0.9997951897413229  0.9996275066484381  0.5628043523869063
  0.0002945359592140  0.5002145890264083  0.5629801052843725
  0.5003083901148360  0.9997191406542210  0.5619509220951441
  0.0015722474597892  0.1679492076548020  0.5635734726482563
  0.9986808660356539  0.6656741615471170  0.5626092204219987
  0.4992779760428582  0.1647831268937000  0.5652254191541217
  0.5043558657669491  0.6696187606517136  0.5587126895841629
  0.0018075219800606  0.3345479479936659  0.5631467234663317
  0.9986340511188969  0.8319094081519185  0.5623593634784559
  0.4966896480933916  0.3287159588718558  0.5739445185525612
  0.5015380468738779  0.8345068816479927  0.5598012246723594
  0.1654894281894473  0.9977164559998503  0.5636337011012054
  0.1707714735166924  0.5001365639599551  0.5624119830115047
  0.6679137349541916  0.0024240298347618  0.5612016033426497
  0.6560510415712210  0.4993671151306063  0.5641131044591701
  0.1660480453776306  0.1648192619136648  0.5651464584627797
  0.1673077500026737  0.6657251726953298  0.5618237310771524
  0.6669243861084333  0.1679532437841677  0.5634739120595070
  0.6651377067610076  0.6692211461473017  0.5606893494974956
  0.1698653054202823  0.3341019834955624  0.5646663208887457
  0.1659030170642101  0.8314772962387688  0.5622959468010923
  0.6647623624866110  0.3340215430851872  0.5656002702853411
  0.6690728799520029  0.8377458271313757  0.5595211396164107
  0.3326637981778598  0.9977417785729187  0.5632885078587384
  0.3436800901855337  0.4995671571042133  0.5622088348843463
  0.8349548216997352  0.0023708392567669  0.5617589294124905
  0.8296654565014512  0.5000501074274875  0.5636616389482098
  0.3316890630741480  0.1628554015384045  0.5678898133193947
  0.3358203364681552  0.6661000113697167  0.5602436428447348
  0.8345607416996444  0.1685504858527297  0.5627998660731121
  0.8303960733389872  0.6659302040123536  0.5623451682358036
  0.3327169462134488  0.3289366103085338  0.5731965079655147
  0.3336393289923764  0.8320154499069371  0.5611122742408593
  0.8332725681204771  0.3345211228963392  0.5634645996340568
  0.8331345450776718  0.8342725905795164  0.5614236149073561
  0.0554934138032646  0.1111235902653464  0.4360754112685578
  0.0554880604997215  0.6111164311834466  0.4354786100717077
  0.5554946053109996  0.1111241734218781  0.4359825038030662
  0.5554886157368367  0.6111079816709758  0.4353375574831448
  0.0554983971716995  0.2777924043185062  0.4361399047937730
  0.0554921829585242  0.7777867735617781  0.4353835888964107
  0.5554946989729183  0.2777944436503494  0.4369017585835640
  0.5555056700038261  0.7777865965677820  0.4344695989546393
  0.0554946541359673  0.4444565447142886  0.4358312103089923
  0.0554917153888531  0.9444581452434234  0.4356669968198049
  0.5554810939501391  0.4444659517546084  0.4366622074473954
  0.5554998943725644  0.9444676174614290  0.4348446113045034
  0.2221641290210587  0.1111238738534256  0.4365355229177794
  0.2221666961179680  0.6111157483151131  0.4351927317071110
  0.7221641125572733  0.1111324371266796  0.4355083164744115
  0.7221368941295003  0.6111117531100680  0.4356801032204647
  0.2221657065996322  0.2777972215556606  0.4366861125187684
  0.2221616791164077  0.7777865496787608  0.4351388959842178
  0.7221607987001069  0.2777933343844651  0.4363054858590639
  0.7221496317585974  0.7777882494657520  0.4348080898691668
  0.2221714441621316  0.4444525117300504  0.4359323786270899
  0.2221574198702017  0.9444522642650199  0.4357573723126621
  0.7221476986423956  0.4444548813768983  0.4364260003105966
  0.7221639575888146  0.9444644050837186  0.4347714746206623
  0.3888261890723272  0.1111223638889488  0.4365071123127805
  0.3888389581813955  0.6111082241503581  0.4350909517527534
  0.8888259035732873  0.1111332372049752  0.4355769561213000
  0.8888136598481198  0.6111179662476134  0.4357072185837094
  0.3888293261830037  0.2777926166282323  0.4371380434964648
  0.3888319913985425  0.7777837541191661  0.4346775617691546
  0.8888270526804366  0.2777880211361997  0.4359808965215958
  0.8888170132742402  0.7777830449885863  0.4352671612167264
  0.3888461703601420  0.4444641241109705  0.4363741079621485
  0.3888300592333258  0.9444600075797595  0.4353524005263965
  0.8888257594343064  0.4444566504541372  0.4360557181667783
  0.8888283906426611  0.9444641860294491  0.4352174497247039
  0.1105052681939539  0.0539537389815247  0.5637227706341719
  0.1128273796590636  0.5549659066520127  0.5623882312898343
  0.6115876636926203  0.0569012043322119  0.5621887606494954
  0.6023193727324087  0.5601846744927887  0.5619734442623313
  0.1125910360250330  0.2225062878856880  0.5647935063311952
  0.1104445742916311  0.7206081256994293  0.5622098800203168
  0.6104450367965283  0.2224620414360352  0.5650795292765026
  0.6146069863782526  0.7288416887250478  0.5588067454511135
  0.1136279976731031  0.3893408280480089  0.5631210768731763
  0.1099149612680135  0.8868446704360607  0.5626894855697526
  0.6072842648252399  0.3879655382653567  0.5682534469345595
  0.6125873019867593  0.8919615351326190  0.5598995148696674
  0.2764911100348380  0.0525233117553334  0.5647861133277982
  0.2839272633504774  0.5550668368090704  0.5613888410525922
  0.7791559218235939  0.0578006569097541  0.5619015942877235
  0.7712557582049019  0.5548841318703316  0.5632444644808687
  0.2813291011766504  0.3880957120683333  0.5668884552870005
  0.2772790862904233  0.8868826442766036  0.5621127909333921
  0.7761979911323460  0.3892818929662684  0.5639899590282852
  0.7797269547498266  0.8918737125860545  0.5608195760722737
  0.4439126063916449  0.0539816317921562  0.5632801778981383
  0.4581004479825855  0.5607133296637304  0.5594050797089212
  0.9457666895157345  0.0568553329139511  0.5627948762744257
  0.9424379419446233  0.5549132393845142  0.5631155914575009
  0.4425654560606542  0.2182666076729297  0.5686285737104111
  0.4465872116527018  0.7233404799487403  0.5593986130367399
  0.9459021784654582  0.2236198255231824  0.5632289292676729
  0.9424493499707148  0.7208144635575913  0.5623950291802340
  0.4386346716718722  0.3768210617046073  0.5852735131344360
  0.4449392745408458  0.8886956521016330  0.5608328854210249
  0.9450177110085090  0.3895179056153654  0.5631666639674989
  0.9440038525507864  0.8885384762710286  0.5622128585775170
  0.2763098246276613  0.2183560690865091  0.5683150870218128
  0.2786608035343875  0.7209381491837970  0.5609058735298774
  0.7782785100448034  0.2236113307311668  0.5632675427536424
  0.7767247039553282  0.7230261273642256  0.5616158548647150
  0.4955940572296756  0.5092789330876488  0.6259342817521584

             NaN             NaN             NaN
             NaN             NaN             NaN
             NaN             NaN             NaN
             NaN             NaN             NaN
             NaN             NaN             NaN
             NaN             NaN             NaN
             NaN             NaN             NaN
             NaN             NaN             NaN
             NaN             NaN             NaN
             NaN             NaN             NaN
             NaN             NaN             NaN
             NaN             NaN             NaN
             NaN             NaN             NaN
             NaN             NaN             NaN
             NaN             NaN             NaN
             NaN             NaN             NaN
             NaN             NaN             NaN
             NaN             NaN             NaN
             NaN             NaN             NaN
             NaN             NaN             NaN
             NaN             NaN             NaN
             NaN             NaN             NaN
             NaN             NaN             NaN
             NaN             NaN             NaN
             NaN             NaN             NaN
             NaN             NaN             NaN
             NaN             NaN             NaN
             NaN             NaN             NaN
             NaN             NaN             NaN
             NaN             NaN             NaN
             NaN             NaN             NaN
             NaN             NaN             NaN
             NaN             NaN             NaN
             NaN             NaN             NaN
             NaN             NaN             NaN
             NaN             NaN             NaN
             NaN             NaN             NaN
             NaN             NaN             NaN
             NaN             NaN             NaN
             NaN             NaN             NaN
             NaN             NaN             NaN
             NaN             NaN             NaN
             NaN             NaN             NaN
             NaN             NaN             NaN
             NaN             NaN             NaN
             NaN             NaN             NaN
             NaN             NaN             NaN
             NaN             NaN             NaN
             NaN             NaN             NaN
             NaN             NaN             NaN
             NaN             NaN             NaN
             NaN             NaN             NaN
             NaN             NaN             NaN
             NaN             NaN             NaN
             NaN             NaN             NaN
             NaN             NaN             NaN
             NaN             NaN             NaN
             NaN             NaN             NaN
             NaN             NaN             NaN
             NaN             NaN             NaN
             NaN             NaN             NaN
             NaN             NaN             NaN
             NaN             NaN             NaN
             NaN             NaN             NaN
             NaN             NaN             NaN
             NaN             NaN             NaN
             NaN             NaN             NaN
             NaN             NaN             NaN
             NaN             NaN             NaN
             NaN             NaN             NaN
             NaN             NaN             NaN
             NaN             NaN             NaN
             NaN             NaN             NaN
             NaN             NaN             NaN
             NaN             NaN             NaN
             NaN             NaN             NaN
             NaN             NaN             NaN
             NaN             NaN             NaN
             NaN             NaN             NaN
             NaN             NaN             NaN
             NaN             NaN             NaN
             NaN             NaN             NaN
             NaN             NaN             NaN
             NaN             NaN             NaN
             NaN             NaN             NaN
             NaN             NaN             NaN
             NaN             NaN             NaN
             NaN             NaN             NaN
             NaN             NaN             NaN
             NaN             NaN             NaN
             NaN             NaN             NaN
             NaN             NaN             NaN
             NaN             NaN             NaN
             NaN             NaN             NaN
             NaN             NaN             NaN
             NaN             NaN             NaN
             NaN             NaN             NaN
             NaN             NaN             NaN
             NaN             NaN             NaN
             NaN             NaN             NaN
             NaN             NaN             NaN
             NaN             NaN             NaN
             NaN             NaN             NaN
             NaN             NaN             NaN
             NaN             NaN             NaN
             NaN             NaN             NaN
             NaN             NaN             NaN
             NaN             NaN             NaN
             NaN             NaN             NaN
             NaN             NaN             NaN
             NaN             NaN             NaN
             NaN             NaN             NaN
             NaN             NaN             NaN
             NaN             NaN             NaN
             NaN             NaN             NaN
             NaN             NaN             NaN
             NaN             NaN             NaN
             NaN             NaN             NaN
             NaN             NaN             NaN
             NaN             NaN             NaN
             NaN             NaN             NaN
             NaN             NaN             NaN
             NaN             NaN             NaN
             NaN             NaN             NaN
             NaN             NaN             NaN
             NaN             NaN             NaN
             NaN             NaN             NaN
             NaN             NaN             NaN
             NaN             NaN             NaN
             NaN             NaN             NaN
             NaN             NaN             NaN
             NaN             NaN             NaN
             NaN             NaN             NaN
             NaN             NaN             NaN
             NaN             NaN             NaN
             NaN             NaN             NaN
             NaN             NaN             NaN
             NaN             NaN             NaN
             NaN             NaN             NaN
             NaN             NaN             NaN
             NaN             NaN             NaN
             NaN             NaN             NaN
             NaN             NaN             NaN
             NaN             NaN             NaN
