C    H    Li                            
   1.0000000000000000     
    37.0938796996999969    0.0000000000000000    0.0000000000000000
     0.0000000000000000    7.3546423911999996    0.0000000000000000
     0.0000000000000000    0.0000000000000000   27.8030738831000015
   C    H    Li
   108    12     1
Direct
  0.4994647137976287  0.8333574469240289  0.4366627818646843
  0.7303925915378924  0.8332934310075979  0.5630634550483710
  0.3840471122513544  0.8333616244304363  0.4362059054424658
  0.6149201514844529  0.8333537372673434  0.4370685625239129
  0.4417537659344106  0.6666921773955801  0.4363860545309986
  0.6726998037403885  0.6666863350090693  0.4368452497414850
  0.3263579037082613  0.6667157329674794  0.4362598921476087
  0.5571838458735286  0.6666892159833699  0.4369440992435732
  0.4994647010019169  0.1666912324727919  0.4366605448614729
  0.7303927804995526  0.1666259818952988  0.5630634274795927
  0.3840420297391124  0.1666979410248700  0.4361922005360688
  0.6149201768313989  0.1666870904633944  0.4370684377918542
  0.4417536070944002  0.0000272931594241  0.4363860834165538
  0.6726998039514827  0.0000193139567663  0.4368452464351473
  0.3263578175589826  0.0000062081341998  0.4362588062145008
  0.5571838538906047  0.0000217883559364  0.4369440824951734
  0.4994647295621398  0.5000233488967295  0.4366605640821780
  0.7303927923759808  0.4999607710087460  0.5630634286897145
  0.3840422412960675  0.5000283535664356  0.4361928281502049
  0.6149201696177024  0.5000203960652350  0.4370684493371333
  0.4417526294202435  0.3333595763948074  0.4363837242264919
  0.6726997874181923  0.3333528341916839  0.4368452681701221
  0.3263528611897495  0.3333617525152188  0.4362483538679066
  0.5571838665445807  0.3333554620436079  0.4369436791645489
  0.2690197487376834  0.8333618010184105  0.4366521656497096
  0.4999206887413215  0.8333060969976304  0.5631779507345218
  0.3844207952540890  0.8333026783730445  0.5626194732824549
  0.6153648088875651  0.8333037099849939  0.5637287834076123
  0.4421808303911630  0.6666285622074380  0.5628105140696673
  0.6730621274857105  0.6666277759713966  0.5637008999052877
  0.3266046580757729  0.6666377734589654  0.5628051909773210
  0.5576479092250021  0.6666406415396605  0.5635181077823410
  0.2690812776487081  0.1666238098434190  0.4364456137828613
  0.4999202598644052  0.1666360976216140  0.5631755812803917
  0.3844132536082230  0.1666408639412489  0.5625950976608466
  0.6153643186016587  0.1666356404447063  0.5637286211572579
  0.4421808252949024  0.9999695029459346  0.5628105302718394
  0.6730620300027449  0.9999623634909215  0.5637009330700007
  0.3266045410897546  0.9999618256643310  0.5628046755455386
  0.5576479330541086  0.9999739908570178  0.5635181582373524
  0.2690808931470563  0.5001026719316218  0.4364484621758750
  0.4999202658287840  0.4999761171001349  0.5631755487794907
  0.3844132925978698  0.4999644274460607  0.5625951959254697
  0.6153643015420520  0.4999707753403122  0.5637285207100224
  0.4421817464200492  0.3332990371783987  0.5628044839277742
  0.6730620176963452  0.3332952254073338  0.5637009504141449
  0.3265741575131833  0.3333002294850143  0.5627468541620195
  0.5576479318230791  0.3333070903083866  0.5635174577260507
  0.4609870923939025  0.8333593272454523  0.4364659291949719
  0.6918349795711410  0.8333527330188542  0.4366912208086791
  0.3454870828972380  0.8333608932733245  0.4362090721657083
  0.5764190689623525  0.8333550741765569  0.4370009862882182
  0.4032577340372191  0.6666935150989084  0.4362263444404745
  0.6341357180774589  0.6666870212489386  0.4370265985422048
  0.2874712896160109  0.6668221587773723  0.4364346735744422
  0.5187041775757356  0.6666906251045536  0.4367479269794159
  0.4609869405562035  0.1666935468566474  0.4364628219083685
  0.6918349110680959  0.1666860495533706  0.4366912613684273
  0.3454787234010307  0.1666856241790554  0.4361817104174495
  0.5764190465576624  0.1666884060832099  0.4370006529201480
  0.4032575093342874  0.0000302067780606  0.4362261440354423
  0.6341357212436729  0.0000199328567429  0.4370265905827500
  0.2874711712399626  0.9999014514945018  0.4364325028652118
  0.5187041958454118  0.0000233314891362  0.4367479107856010
  0.4609869915371184  0.5000247959956419  0.4364628294286854
  0.6918349122017852  0.5000194188843015  0.4366912644783655
  0.3454789371227970  0.5000374172951306  0.4361834946977786
  0.5764190363650461  0.5000217545094363  0.4370006696605161
  0.4032555403823258  0.3333621419328290  0.4362205949418602
  0.6341356836384097  0.3333534866412408  0.4370265639863509
  0.2874565695551538  0.3333631187831255  0.4363602676021839
  0.5187041760335014  0.3333569067212121  0.4367467057730342
  0.4806751187043745  0.9999747833122777  0.5630548620932818
  0.7119413514127122  0.9999596146400527  0.5633765210380793
  0.3651973711742847  0.9999862686382126  0.5626126398676031
  0.5961493089406072  0.9999717887544023  0.5636872659839801
  0.4229393454808120  0.8333000738942894  0.5627355067413764
  0.6539308759728070  0.8332948692426762  0.5637717945337490
  0.3074960968731615  0.8332979630229413  0.5631406589512126
  0.5384093755670892  0.8333073123631481  0.5634308497147124
  0.4806739466701502  0.3333051891563739  0.5630530954122372
  0.7119415495161278  0.3332919993761403  0.5633765298519640
  0.3651714566004796  0.3333025750465511  0.5626007707950631
  0.5961485778472017  0.3333038083374729  0.5636873916155732
  0.4229350118510780  0.1666351882293074  0.5627200720684850
  0.6539308205395907  0.1666270617172948  0.5637716665342757
  0.3074436694829781  0.1665619905123331  0.5629262017415009
  0.5384092576248991  0.1666376645682092  0.5634293748574106
  0.4806751239207699  0.6666356530317734  0.5630548253326437
  0.7119413255750940  0.6666246351401952  0.5633764965645048
  0.3651974585336156  0.6666188153999760  0.5626126951599597
  0.5961488428229399  0.6666356300326686  0.5636874346240783
  0.4229350326747849  0.4999649157825317  0.5627200963703111
  0.6539307718329994  0.4999623707448155  0.5637715741413815
  0.3074436809703832  0.5000372570412054  0.5629276661620624
  0.5384092834657817  0.4999770237372010  0.5634293347166650
  0.2686023606341654  0.8332965833102537  0.5640563297038728
  0.2685155984938781  0.5004078365882405  0.5639207555222253
  0.2685156978989611  0.1661860284590483  0.5639184365484728
  0.7307129114782165  0.8333526021517723  0.4363791442277291
  0.7307128635698198  0.5000193663424353  0.4363793715476124
  0.7307128629402176  0.1666858517737651  0.4363793721284062
  0.2501879097328041  0.6668557701250413  0.5645880132130354
  0.2501881436710014  0.3332959605365339  0.5648072684214369
  0.2501882353659008  0.9997381512284795  0.5645875756083378
  0.7491758076624778  0.0000193450722056  0.4362387766575064
  0.7491756971422318  0.3333526614784542  0.4362392812085735
  0.7491758084150753  0.6666859898324826  0.4362387715990271
  0.2395431903987368  0.8333614986195188  0.4372419518633457
  0.2395447686440925  0.5006205556900373  0.4362858534604664
  0.2395449168806864  0.1661068981989997  0.4362788382715601
  0.7598566085848854  0.8332956688793542  0.5623672684563420
  0.7598567723513184  0.4999627917373221  0.5623671169653618
  0.7598567750514644  0.1666285717002279  0.5623670477744833
  0.2206721354239554  0.6674683795257326  0.5656893177077014
  0.2207723395783174  0.3333011608312359  0.5699120686121502
  0.2206722300470842  0.9991218290414560  0.5656938658391583
  0.7786518748882283  0.0000214642968195  0.4360182369871037
  0.7786516892655464  0.3333545911331641  0.4360188092250306
  0.7786518758417005  0.6666877359660769  0.4360182192899212
  0.1791016445991579  0.3329218658516226  0.5006538685845834

             NaN             NaN             NaN
             NaN             NaN             NaN
             NaN             NaN             NaN
             NaN             NaN             NaN
             NaN             NaN             NaN
             NaN             NaN             NaN
             NaN             NaN             NaN
             NaN             NaN             NaN
             NaN             NaN             NaN
             NaN             NaN             NaN
             NaN             NaN             NaN
             NaN             NaN             NaN
             NaN             NaN             NaN
             NaN             NaN             NaN
             NaN             NaN             NaN
             NaN             NaN             NaN
             NaN             NaN             NaN
             NaN             NaN             NaN
             NaN             NaN             NaN
             NaN             NaN             NaN
             NaN             NaN             NaN
             NaN             NaN             NaN
             NaN             NaN             NaN
             NaN             NaN             NaN
             NaN             NaN             NaN
             NaN             NaN             NaN
             NaN             NaN             NaN
             NaN             NaN             NaN
             NaN             NaN             NaN
             NaN             NaN             NaN
             NaN             NaN             NaN
             NaN             NaN             NaN
             NaN             NaN             NaN
             NaN             NaN             NaN
             NaN             NaN             NaN
             NaN             NaN             NaN
             NaN             NaN             NaN
             NaN             NaN             NaN
             NaN             NaN             NaN
             NaN             NaN             NaN
             NaN             NaN             NaN
             NaN             NaN             NaN
             NaN             NaN             NaN
             NaN             NaN             NaN
             NaN             NaN             NaN
             NaN             NaN             NaN
             NaN             NaN             NaN
             NaN             NaN             NaN
             NaN             NaN             NaN
             NaN             NaN             NaN
             NaN             NaN             NaN
             NaN             NaN             NaN
             NaN             NaN             NaN
             NaN             NaN             NaN
             NaN             NaN             NaN
             NaN             NaN             NaN
             NaN             NaN             NaN
             NaN             NaN             NaN
             NaN             NaN             NaN
             NaN             NaN             NaN
             NaN             NaN             NaN
             NaN             NaN             NaN
             NaN             NaN             NaN
             NaN             NaN             NaN
             NaN             NaN             NaN
             NaN             NaN             NaN
             NaN             NaN             NaN
             NaN             NaN             NaN
             NaN             NaN             NaN
             NaN             NaN             NaN
             NaN             NaN             NaN
             NaN             NaN             NaN
             NaN             NaN             NaN
             NaN             NaN             NaN
             NaN             NaN             NaN
             NaN             NaN             NaN
             NaN             NaN             NaN
             NaN             NaN             NaN
             NaN             NaN             NaN
             NaN             NaN             NaN
             NaN             NaN             NaN
             NaN             NaN             NaN
             NaN             NaN             NaN
             NaN             NaN             NaN
             NaN             NaN             NaN
             NaN             NaN             NaN
             NaN             NaN             NaN
             NaN             NaN             NaN
             NaN             NaN             NaN
             NaN             NaN             NaN
             NaN             NaN             NaN
             NaN             NaN             NaN
             NaN             NaN             NaN
             NaN             NaN             NaN
             NaN             NaN             NaN
             NaN             NaN             NaN
             NaN             NaN             NaN
             NaN             NaN             NaN
             NaN             NaN             NaN
             NaN             NaN             NaN
             NaN             NaN             NaN
             NaN             NaN             NaN
             NaN             NaN             NaN
             NaN             NaN             NaN
             NaN             NaN             NaN
             NaN             NaN             NaN
             NaN             NaN             NaN
             NaN             NaN             NaN
             NaN             NaN             NaN
             NaN             NaN             NaN
             NaN             NaN             NaN
             NaN             NaN             NaN
             NaN             NaN             NaN
             NaN             NaN             NaN
             NaN             NaN             NaN
             NaN             NaN             NaN
             NaN             NaN             NaN
             NaN             NaN             NaN
             NaN             NaN             NaN
             NaN             NaN             NaN
             NaN             NaN             NaN
