C    H    Li                            
   1.0000000000000000     
    37.0938796996999969    0.0000000000000000    0.0000000000000000
     0.0000000000000000    7.3546423911999996    0.0000000000000000
     0.0000000000000000    0.0000000000000000   27.8030738831000015
   C    H    Li
   108    12     1
Direct
  0.4995260274417723  0.8333571440880719  0.4366639109916385
  0.7304692445011227  0.8333111438394855  0.5631436638804594
  0.3841090188118330  0.8333702364057701  0.4362314675200991
  0.6149779360140155  0.8333539156647820  0.4369989202755061
  0.4418158324290398  0.6666989665718508  0.4364377272060190
  0.6727558985993820  0.6666937697720424  0.4367664125053522
  0.3264173530871293  0.6667183047603449  0.4361830200620934
  0.5572438015138467  0.6666885213623999  0.4368883070212259
  0.4995259770521368  0.1666909043993345  0.4366632526858615
  0.7304693677540695  0.1666439446853076  0.5631436201093796
  0.3841057576411330  0.1667040447470647  0.4362224587919783
  0.6149779525826142  0.1666872899731060  0.4369988401375268
  0.4418158027991816  0.0000332020401083  0.4364374259122989
  0.6727559064612777  0.0000268790728399  0.4367662283188977
  0.3264174882108470  1.0000205802033284  0.4361829761280103
  0.5572437993711155  0.0000214397909295  0.4368880153262710
  0.4995259829412465  0.5000233301722844  0.4366636297740729
  0.7304693980474184  0.4999781084665131  0.5631436695043447
  0.3841057459932762  0.5000374124760913  0.4362229542437580
  0.6149779399646303  0.5000205889293541  0.4369990465578382
  0.4418149690594234  0.3333660643830932  0.4364369270473598
  0.6727558963323222  0.3333603772572260  0.4367664291327117
  0.3264162066893677  0.3333693966193739  0.4361766249677050
  0.5572438230410242  0.3333549924710617  0.4368882001140008
  0.2690760196096549  0.8333689597272752  0.4364908326753531
  0.5000145250940913  0.8332990384582977  0.5632358983126645
  0.3845386888938468  0.8332834110422012  0.5627675309990630
  0.6154460584969905  0.8333087630182513  0.5636972384221934
  0.4422858952722947  0.6666193497017109  0.5629219345695199
  0.6731411409782605  0.6666435438345965  0.5637058148841920
  0.3267355507095920  0.6666321778292040  0.5629661032416619
  0.5577349926065992  0.6666384482737595  0.5635079119721824
  0.2691239634919313  0.1666558751586575  0.4363434808747688
  0.5000143009311976  0.1666307226156647  0.5632342018303995
  0.3845322314058913  0.1666189208955052  0.5627538841064650
  0.6154458226987717  0.1666413001507287  0.5636970676378822
  0.4422858765709382  0.9999589756234050  0.5629223172548669
  0.6731411124518516  0.9999776324235419  0.5637058799209259
  0.3267355855772937  0.9999255305142165  0.5629668938627027
  0.5577349937675301  0.9999718537855867  0.5635081311520430
  0.2691237063831122  0.5000784461569941  0.4363440358746147
  0.5000143045510776  0.4999674032373320  0.5632338916269843
  0.3845323003602063  0.4999486318306920  0.5627535687383759
  0.6154458288818750  0.4999763057977572  0.5636969273626448
  0.4422860768827409  0.3332896518215271  0.5629170770726781
  0.6731412306050030  0.3333105978954250  0.5637057165155842
  0.3267165779244008  0.3332803411498145  0.5629527832273342
  0.5577351853961681  0.3333052017225338  0.5635073886697186
  0.4610520816244914  0.8333636007376415  0.4365059620983560
  0.6918900516149068  0.8333623791691873  0.4366111302728791
  0.3455481000212450  0.8333702832196735  0.4361660811195503
  0.5764786691435646  0.8333535914337336  0.4369408369766384
  0.4033212737767082  0.6667034261024486  0.4362722571919693
  0.6341916502136878  0.6666878313957295  0.4369542659275113
  0.2875305188465941  0.6667887789097108  0.4363044656330342
  0.5187664479314089  0.6666891922551659  0.4367261947653868
  0.4610519165613413  0.1666978219656114  0.4365047321324079
  0.6918899992363291  0.1666956786744379  0.4366111573361983
  0.3455433796460801  0.1666959702940397  0.4361477541765531
  0.5764786631264148  0.1666868959837418  0.4369407128372036
  0.4033212356431411  0.0000382699372894  0.4362718886621270
  0.6341916455271625  0.0000208269904140  0.4369540659221760
  0.2875307027678730  0.9999462444993086  0.4363045480401209
  0.5187664538848277  0.0000222338737457  0.4367258411034788
  0.4610519238131996  0.5000294739154605  0.4365050740189902
  0.6918900239044969  0.5000290879828180  0.4366113210380049
  0.3455433438552611  0.5000452468349302  0.4361481618849640
  0.5764786609985959  0.5000202578378021  0.4369409688680764
  0.4033196620397833  0.3333711370631036  0.4362690123811462
  0.6341916283971738  0.3333542930074095  0.4369542477249939
  0.2875236242657682  0.3333675232399589  0.4362525727818671
  0.5187664290401058  0.3333557334217864  0.4367259546620741
  0.4807723257689089  0.9999661176869301  0.5631313443023694
  0.7120187079664566  0.9999782934177909  0.5634262897748906
  0.3653172939163709  0.9999534044916618  0.5627702810514207
  0.5962334894567654  0.9999751592603945  0.5636523414239479
  0.4230470917374721  0.8332883316398441  0.5628597568570760
  0.6540106492420726  0.8333102023367571  0.5637600498616727
  0.3076113304272994  0.8332782133783857  0.5632666015217694
  0.5384985271437601  0.8333038897681581  0.5634424719797736
  0.4807712740079582  0.3332971820083532  0.5631296069267643
  0.7120187474585518  0.3333110755521939  0.5634262606874936
  0.3653000303908479  0.3332824850468752  0.5627684138954815
  0.5962332056030357  0.3333080256620317  0.5636520233624179
  0.4230431139837789  0.1666228377731838  0.5628492730899646
  0.6540105479994237  0.1666428048954869  0.5637599054356291
  0.3075911877482949  0.1665518157786932  0.5631581957367194
  0.5384984788925306  0.1666356696377812  0.5634414077070903
  0.4807723379810118  0.6666281780018937  0.5631310049981556
  0.7120187525468417  0.6666438754038975  0.5634262841029080
  0.3653172858936960  0.6666123936251166  0.5627703284419325
  0.5962334885263102  0.6666408710955867  0.5636521697384789
  0.4230431456989098  0.4999539460722879  0.5628488939368543
  0.6540105625250363  0.4999776690487961  0.5637598217255305
  0.3075908671634973  0.5000044672519286  0.5631563137263569
  0.5384984817914433  0.4999720677037275  0.5634411657797302
  0.2687196725927702  0.8332788894446163  0.5640860921827809
  0.2686861788845975  0.5002563434679356  0.5641295289569112
  0.2686865838225838  0.1663045964615986  0.5641304785949816
  0.7307685435874731  0.8333565571977533  0.4363008004119564
  0.7307685120821812  0.5000233144972769  0.4363010247639663
  0.7307684922654807  0.1666898064260997  0.4363009236970433
  0.2502918165202719  0.6667580250438241  0.5646150027655422
  0.2503655684904456  0.3332799049700321  0.5650596845522500
  0.2502927579623880  0.9998009136919103  0.5646145918577680
  0.7492319937633838  0.0000225761452768  0.4361583936239158
  0.7492318986199212  0.3333558517416453  0.4361587246167000
  0.7492320207745365  0.6666892652986128  0.4361584394465851
  0.2396005890222177  0.8333684163664509  0.4369993458703446
  0.2396021924324896  0.5003812329012990  0.4363561228476391
  0.2396023007617686  0.1663535424006729  0.4363518678450949
  0.7599335591839224  0.8333097940590457  0.5625033924624786
  0.7599337270547513  0.4999762639681378  0.5625033866428020
  0.7599336917567674  0.1666417926028521  0.5625031901854752
  0.2207836130250587  0.6671294279701755  0.5655646532089147
  0.2208717189726507  0.3332804504059544  0.5687084183558470
  0.2207843940747407  0.9994258723556007  0.5655663253576005
  0.7787082182927835  0.0000223246772331  0.4359297989683634
  0.7787080510480729  0.3333551079713055  0.4359299755346247
  0.7787082404962957  0.6666890075931229  0.4359296712327514
  0.1723371586855323  0.3329246280190608  0.5002970312173074

             NaN             NaN             NaN
             NaN             NaN             NaN
             NaN             NaN             NaN
             NaN             NaN             NaN
             NaN             NaN             NaN
             NaN             NaN             NaN
             NaN             NaN             NaN
             NaN             NaN             NaN
             NaN             NaN             NaN
             NaN             NaN             NaN
             NaN             NaN             NaN
             NaN             NaN             NaN
             NaN             NaN             NaN
             NaN             NaN             NaN
             NaN             NaN             NaN
             NaN             NaN             NaN
             NaN             NaN             NaN
             NaN             NaN             NaN
             NaN             NaN             NaN
             NaN             NaN             NaN
             NaN             NaN             NaN
             NaN             NaN             NaN
             NaN             NaN             NaN
             NaN             NaN             NaN
             NaN             NaN             NaN
             NaN             NaN             NaN
             NaN             NaN             NaN
             NaN             NaN             NaN
             NaN             NaN             NaN
             NaN             NaN             NaN
             NaN             NaN             NaN
             NaN             NaN             NaN
             NaN             NaN             NaN
             NaN             NaN             NaN
             NaN             NaN             NaN
             NaN             NaN             NaN
             NaN             NaN             NaN
             NaN             NaN             NaN
             NaN             NaN             NaN
             NaN             NaN             NaN
             NaN             NaN             NaN
             NaN             NaN             NaN
             NaN             NaN             NaN
             NaN             NaN             NaN
             NaN             NaN             NaN
             NaN             NaN             NaN
             NaN             NaN             NaN
             NaN             NaN             NaN
             NaN             NaN             NaN
             NaN             NaN             NaN
             NaN             NaN             NaN
             NaN             NaN             NaN
             NaN             NaN             NaN
             NaN             NaN             NaN
             NaN             NaN             NaN
             NaN             NaN             NaN
             NaN             NaN             NaN
             NaN             NaN             NaN
             NaN             NaN             NaN
             NaN             NaN             NaN
             NaN             NaN             NaN
             NaN             NaN             NaN
             NaN             NaN             NaN
             NaN             NaN             NaN
             NaN             NaN             NaN
             NaN             NaN             NaN
             NaN             NaN             NaN
             NaN             NaN             NaN
             NaN             NaN             NaN
             NaN             NaN             NaN
             NaN             NaN             NaN
             NaN             NaN             NaN
             NaN             NaN             NaN
             NaN             NaN             NaN
             NaN             NaN             NaN
             NaN             NaN             NaN
             NaN             NaN             NaN
             NaN             NaN             NaN
             NaN             NaN             NaN
             NaN             NaN             NaN
             NaN             NaN             NaN
             NaN             NaN             NaN
             NaN             NaN             NaN
             NaN             NaN             NaN
             NaN             NaN             NaN
             NaN             NaN             NaN
             NaN             NaN             NaN
             NaN             NaN             NaN
             NaN             NaN             NaN
             NaN             NaN             NaN
             NaN             NaN             NaN
             NaN             NaN             NaN
             NaN             NaN             NaN
             NaN             NaN             NaN
             NaN             NaN             NaN
             NaN             NaN             NaN
             NaN             NaN             NaN
             NaN             NaN             NaN
             NaN             NaN             NaN
             NaN             NaN             NaN
             NaN             NaN             NaN
             NaN             NaN             NaN
             NaN             NaN             NaN
             NaN             NaN             NaN
             NaN             NaN             NaN
             NaN             NaN             NaN
             NaN             NaN             NaN
             NaN             NaN             NaN
             NaN             NaN             NaN
             NaN             NaN             NaN
             NaN             NaN             NaN
             NaN             NaN             NaN
             NaN             NaN             NaN
             NaN             NaN             NaN
             NaN             NaN             NaN
             NaN             NaN             NaN
             NaN             NaN             NaN
             NaN             NaN             NaN
             NaN             NaN             NaN
             NaN             NaN             NaN
             NaN             NaN             NaN
